66
Lattice="100.000000 0.000000 0.000000 0.000000 100.000000 0.000000 0.000000 0.000000 100.000000" Properties=species:S:1:pos:R:3:REF_forces:R:3 E_kJmol=-78.946782919643 pbc="T T T"
O 4.113085 -2.957913 0.557150 389.542808 390.088941 432.551341
O 7.070505 1.196055 0.680353 155.031498 -164.978002 561.670903
C 4.835338 -2.891277 1.545084 -1132.002467 -1430.121480 -994.196953
C 6.589673 0.462934 1.534163 -149.309438 603.573735 -2155.172293
C 0.983839 0.562053 -1.264512 73.773790 1.971015 70.909670
C -6.303358 -3.109091 -2.494446 -64.913088 -159.530501 -69.446982
C -4.936997 -2.825630 -2.472070 75.572231 -116.234284 -56.057545
C -7.212377 -2.176934 -1.991348 -137.189121 -47.443278 0.992789
C -4.483048 -1.609009 -1.952675 258.184169 77.802076 11.373300
C -6.755626 -0.961500 -1.471275 -152.158022 176.968028 95.740514
C -5.383345 -0.645914 -1.454484 -56.532873 -139.419350 -124.255290
N 1.576179 0.925187 -2.368459 68.980860 129.633504 149.328802
N 6.977969 0.480734 2.815741 322.619636 -208.696364 1641.729864
N 1.405631 0.959748 -0.076066 122.657999 10.269614 -44.103675
N -3.990822 -0.619234 1.073314 680.851710 338.474126 -145.446370
N 5.472795 -1.775057 1.917830 768.803148 1079.211988 775.801646
N -0.058015 -0.213282 -1.368940 -87.080743 -26.695999 231.074157
C 5.025130 -4.099308 2.431329 -388.604288 -143.800991 -462.156276
C 8.021179 1.351437 3.363843 92.717207 130.960678 -194.309040
C 2.518921 1.890528 0.208925 -235.515518 -20.198356 95.270139
C -4.802266 0.543887 0.679525 40.438009 -160.908472 180.258882
C -3.527417 2.682842 -1.293613 261.855887 184.863278 -32.134321
C -4.982138 3.123067 -1.158570 -93.159097 312.728734 2.043149
C -3.559273 1.165991 -1.460820 201.937636 -211.824210 37.033871
C -5.823515 1.851118 -1.224359 -242.141243 -56.797255 61.888592
C 3.902137 1.224643 0.140195 -491.880774 -91.319463 172.042939
C -4.892586 0.679808 -0.860315 -141.494978 -150.743467 -37.403853
C 4.101538 0.160984 1.233489 216.068374 155.210304 -163.387451
C 5.482969 -0.521689 1.131132 -406.131962 -421.041712 91.334647
H -6.659103 -4.053570 -2.896782 -11.248733 -20.992654 -12.897884
H -4.229554 -3.554036 -2.856994 19.118060 -19.871471 -8.203133
H -8.275982 -2.398047 -2.000782 -30.090541 -1.464170 0.230592
H -3.416211 -1.424348 -1.934711 18.492730 -7.366194 14.282410
H -7.487417 -0.263848 -1.077104 -5.648035 20.965525 20.173980
H 2.393270 1.505536 -2.308454 229.429303 90.089748 -441.871363
H 1.248054 0.601202 -3.258835 271.504281 135.856715 -395.039476
H 6.483110 -0.111435 3.459606 -82.658063 -39.555230 -58.645775
H 0.901339 0.608262 0.721030 151.859097 90.839350 351.609373
H -4.331375 -1.449577 0.581218 -239.700861 -58.520984 178.716634
H -4.042339 -0.763464 2.082467 -201.777861 -191.718626 -36.797564
H 6.075459 -1.853236 2.721482 9.451652 -96.587595 -40.450670
H -0.368433 -0.522220 -2.270998 -364.564361 -295.091666 -16.959757
H -0.563498 -0.501423 -0.547113 -343.948295 -266.839929 -98.140926
H 4.418555 -4.919346 2.048146 -68.976849 -169.531799 -37.942318
H 6.073589 -4.392923 2.424702 222.462066 138.632530 317.856072
H 4.709964 -3.860509 3.445326 322.227149 102.310944 266.956771
H 7.674253 1.816243 4.288271 -75.369044 61.881019 154.976203
H 8.920840 0.770425 3.574602 137.377823 -120.510580 24.897156
H 8.278184 2.141626 2.653536 29.426354 120.254058 -101.940233
H 2.384298 2.318143 1.204975 -7.140591 121.475266 169.308654
H 2.494061 2.717811 -0.502534 1.312606 213.656710 -90.461216
H -4.380116 1.454013 1.118439 8.111431 93.650774 25.504861
H -5.812581 0.423687 1.086733 -95.248498 -6.343133 -12.693480
H -3.043195 3.162314 -2.150545 55.281244 51.430709 -48.042311
H -2.972607 2.952155 -0.388804 48.332864 32.738573 62.439791
H -5.265889 3.816944 -1.956505 -30.847555 83.643080 -43.121557
H -5.131025 3.625683 -0.197257 -23.159744 63.063930 67.675285
H -2.698430 0.696943 -0.977801 72.932382 -51.128916 -1.214475
H -3.525391 0.930864 -2.530187 -12.366377 -14.840002 -84.102774
H -6.196561 1.724182 -2.246881 -24.224401 -9.977848 -83.750554
H -6.688282 1.918063 -0.555991 -106.938048 0.189160 1.949296
H 4.040310 0.767152 -0.840625 135.872529 -26.254187 -169.584941
H 4.649673 2.008682 0.260295 200.769897 136.368701 -75.692636
H 3.993256 0.621651 2.217365 -67.828311 3.798228 173.112410
H 3.316024 -0.586326 1.124653 -139.782236 -139.617850 53.358983
H 5.667641 -0.782447 0.085937 46.635366 -66.635058 -158.470538
66
Lattice="100.000000 0.000000 0.000000 0.000000 100.000000 0.000000 0.000000 0.000000 100.000000" Properties=species:S:1:pos:R:3:REF_forces:R:3 E_kJmol=-63.818013833575 pbc="T T T"
O -3.910315 1.811084 6.344681 112.457260 -500.226587 -573.409928
O -5.805593 -2.143144 3.172560 147.372280 -59.121457 624.382954
C -4.462234 1.181562 5.459205 -820.602305 1157.856144 1448.922323
C -5.000095 -1.648674 3.951056 -818.165090 100.526958 -2046.970909
C -1.273762 -0.177453 -0.981867 -13.055461 -36.016443 84.580133
C 4.822537 4.611236 -3.548962 34.373239 171.880109 -31.179230
C 3.610560 4.132392 -3.048985 -80.693960 122.144785 33.258791
C 5.838619 3.712910 -3.879315 114.804278 52.526502 -44.378935
C 3.411888 2.756154 -2.892564 -234.848226 -103.110800 103.740965
C 5.637399 2.337111 -3.721671 161.863194 -184.732316 -53.247456
C 4.414216 1.828734 -3.241773 -25.357842 180.168082 -72.254058
N -2.313133 -0.222946 -1.768808 -52.462793 -144.538654 131.123260
N -4.789316 -2.127292 5.182647 367.548534 -390.524157 1505.321323
N -1.172356 -0.932943 0.099014 -174.676389 36.566702 28.833311
N 4.284774 0.614914 -0.582606 -596.808122 -343.345725 5.877028
N -3.732917 0.427394 4.631955 1022.379328 -753.682055 -837.553540
N -0.316676 0.647200 -1.299613 161.725945 1.839135 174.439826
C -5.968653 1.247404 5.303286 183.852135 514.690733 303.646612
C -5.473011 -3.291316 5.747195 -153.587798 -56.865749 -150.607708
C -2.116989 -1.980981 0.542942 274.988431 36.278010 -4.268110
C 4.869892 -0.112278 -1.723034 6.638345 60.752604 252.501557
C 2.749938 -1.598531 -3.520551 -264.326094 -207.482461 -1.236351
C 4.045497 -1.809479 -4.297100 86.414606 -259.389111 -167.398430
C 2.741621 -0.127275 -3.119364 -174.665394 164.216298 175.490069
C 4.808803 -0.486740 -4.229013 267.147117 56.038720 -0.945491
C -3.340719 -1.433511 1.296701 457.165337 137.744477 -37.860979
C 4.214648 0.318999 -3.057626 102.172838 176.611633 -28.981177
C -2.979068 -0.799686 2.654118 -205.617837 -61.525740 -57.513866
C -4.205161 -0.407943 3.506633 201.884081 277.573502 243.447180
H 4.978538 5.679105 -3.676536 7.584777 22.498660 10.742456
H 2.827189 4.834737 -2.779314 -25.497948 3.300909 0.777631
H 6.787442 4.083983 -4.257330 21.186858 -1.148998 -14.950679
H 2.466844 2.418434 -2.486649 -6.051562 -10.582333 10.235515
H 6.450716 1.665411 -3.977429 7.959834 -28.375917 -0.322291
H -2.365579 0.353983 -2.588046 -402.436760 -45.371651 -266.963018
H -3.060908 -0.855980 -1.548547 -387.841391 4.160495 -308.151949
H -4.128942 -1.636574 5.765822 68.409810 132.298843 -49.265656
H -0.328287 -0.832235 0.639377 13.689952 -233.201225 336.037802
H 4.339257 1.621404 -0.760349 313.266661 18.407615 77.056177
H 4.783373 0.383293 0.277905 167.571972 231.186539 -31.967956
H -2.741214 0.469182 4.816710 -30.974972 163.331287 190.228498
H 0.527820 0.683474 -0.752048 308.381540 282.525272 -163.881621
H -0.389097 1.211581 -2.126180 352.134293 279.345228 -99.969591
H -6.226900 1.515175 4.281524 -103.190605 -345.401428 -267.408207
H -6.407629 0.286325 5.562889 -91.560553 -240.669363 -292.585523
H -6.357543 2.009353 5.978249 -112.140045 69.965956 139.947225
H -5.200787 -3.417839 6.796684 60.948197 -4.564757 167.946604
H -6.555166 -3.159330 5.675485 -166.122952 42.596791 -12.796848
H -5.196192 -4.191619 5.194441 62.761054 -130.483415 -93.779856
H -2.465137 -2.550283 -0.321644 -50.862902 -159.475283 -133.093390
H -1.592463 -2.682063 1.195920 77.627462 -180.481229 97.080213
H 5.945464 0.093008 -1.767024 80.318437 26.653926 -50.360585
H 4.749882 -1.190195 -1.569960 2.661828 -89.211487 -22.171580
H 1.873825 -1.849219 -4.127020 -76.827302 -41.772055 -30.270618
H 2.744566 -2.233703 -2.628775 -4.370723 -55.725132 71.948234
H 3.843145 -2.084217 -5.337512 6.988925 -47.306286 -84.219043
H 4.630328 -2.613537 -3.838296 52.868584 -73.853892 18.872384
H 2.228932 0.016039 -2.165563 -75.045714 39.934055 37.112324
H 2.212079 0.444187 -3.889599 -30.021023 46.110565 -59.408986
H 5.883169 -0.660033 -4.108130 97.755614 19.382366 -45.795084
H 4.656946 0.057541 -5.168013 -1.934943 50.509015 -68.851183
H -4.010567 -2.276773 1.454569 -218.840863 -142.822400 -19.611604
H -3.859631 -0.698376 0.680692 -204.862481 59.933518 -90.931147
H -2.385845 0.096364 2.462470 153.368508 114.933975 27.926862
H -2.365302 -1.499500 3.224251 160.132752 -62.175069 113.993207
H -4.882722 0.181995 2.887836 -114.953987 138.693599 -100.907906
66
Lattice="100.000000 0.000000 0.000000 0.000000 100.000000 0.000000 0.000000 0.000000 100.000000" Properties=species:S:1:pos:R:3:REF_forces:R:3 E_kJmol=-51.343696152870 pbc="T T T"
O -5.435930 -1.378575 -4.472794 34.202461 198.851337 730.150058
O -6.537628 2.187801 -0.388071 -253.943076 -77.482849 -558.523572
C -5.231721 -0.468731 -3.689887 76.481698 14.200163 -2024.079546
C -6.515362 1.317394 -1.247724 876.549924 656.538983 1855.643190
C -0.824539 0.080475 1.552200 -30.972594 32.667118 -68.952292
C 5.908539 -4.581519 1.320418 60.537607 -164.834393 10.947004
C 4.579656 -4.162290 1.397781 -78.012371 -132.093884 12.238284
C 6.922493 -3.638620 1.145889 129.643312 -42.908649 -10.092489
C 4.267907 -2.800942 1.309159 -261.716077 93.369644 10.744911
C 6.608097 -2.278019 1.056452 163.313604 195.934800 -23.127654
C 5.276197 -1.828858 1.152577 17.157811 -181.066111 70.602548
N -1.408131 0.135092 2.718007 -91.348119 142.559670 -110.826784
N -7.464648 1.221195 -2.184892 -988.290976 -256.781453 -1264.320317
N -1.198630 0.842973 0.538446 -170.836016 -21.873535 48.031409
N 3.892746 -0.729973 -1.191007 -557.410449 333.603813 261.256453
N -5.406626 -0.685798 -2.380457 -152.373011 -577.098998 1434.616920
N 0.157638 -0.763047 1.410709 57.068737 -11.196866 -240.855565
C -4.774318 0.877847 -4.219703 -393.592027 -242.319862 -375.204892
C -8.591964 2.142878 -2.326334 17.047985 144.846606 173.445484
C -2.251443 1.881134 0.553434 233.593569 -33.507380 -106.607568
C 4.900503 0.056850 -0.458421 -107.116635 -73.070778 -233.357344
C 3.761752 1.547028 2.099280 -236.174670 202.743541 103.961680
C 5.256676 1.845435 2.141492 148.017469 271.293593 117.873658
C 3.638985 0.066560 1.752147 -217.123331 -173.682864 -58.697634
C 5.965113 0.539672 1.786010 254.163864 -51.589589 -112.742519
C -3.670600 1.308690 0.407545 435.353483 -140.633141 -165.012095
C 4.943142 -0.335880 1.037890 115.135378 -170.230792 -20.116982
C -3.961334 0.816737 -1.023150 -148.004072 40.522265 197.772457
C -5.390208 0.257819 -1.235765 254.776966 -89.326600 -523.670295
H 6.155867 -5.637343 1.390446 -4.404548 -25.125726 0.675679
H 3.792990 -4.900059 1.524667 -35.658752 -1.636617 2.353058
H 7.957223 -3.963317 1.078778 28.437314 2.486401 -6.210063
H 3.226651 -2.508859 1.357874 -17.512796 -1.309234 -12.266249
H 7.418963 -1.571327 0.911344 7.154913 24.369192 -10.714302
H -2.163803 0.783583 2.849958 -204.986044 -7.818281 460.449637
H -1.101020 -0.445749 3.476628 -246.310982 58.233156 413.834384
H -7.395921 0.456833 -2.838480 69.995765 -143.636104 20.886682
H -0.682126 0.738820 -0.320136 -128.895973 234.695426 -299.578135
H 3.931708 -0.512831 -2.188090 179.276098 -228.381242 -45.417293
H 4.071100 -1.726308 -1.042273 241.501617 -30.315595 -205.916179
H -5.660337 -1.644114 -2.181086 -28.404926 -75.581647 -219.228860
H 0.449207 -1.336389 2.180507 349.421806 -285.238815 -55.984817
H 0.671287 -0.804839 0.545257 349.422833 -291.638658 8.935399
H -5.340667 1.692596 -3.778096 203.419136 196.890181 359.517751
H -3.714508 1.000317 -4.011166 118.071272 186.348087 260.456151
H -4.922166 0.892259 -5.299464 81.710906 16.793528 -185.774145
H -9.143244 1.927779 -3.243303 -81.477015 -53.431165 -157.725099
H -9.265341 2.041867 -1.473109 -107.045835 -44.442061 152.335490
H -8.230776 3.172784 -2.361208 79.383294 165.668303 -18.431498
H -2.073769 2.589963 -0.258306 27.211851 189.505171 -114.567493
H -2.195981 2.444027 1.487376 11.905332 160.316041 149.497171
H 4.677248 1.123327 -0.564153 2.861239 108.020448 13.345586
H 5.886584 -0.115335 -0.904229 96.896614 -25.552010 5.270745
H 3.282574 2.159331 1.328681 -43.855511 56.199586 -61.715419
H 3.285005 1.766524 3.060030 -56.758789 38.382914 61.217900
H 5.503570 2.623356 1.411575 30.302725 73.389986 -50.254290
H 5.564919 2.195577 3.131928 42.824595 58.939870 70.021118
H 3.534373 -0.502658 2.681922 0.060231 -49.904674 75.545616
H 2.760281 -0.118219 1.131152 -74.828807 -42.390804 3.140299
H 6.274454 0.039903 2.710836 26.802892 -42.807899 72.570860
H 6.862232 0.730361 1.187983 109.616179 -9.635363 -1.588164
H -3.815371 0.490958 1.113978 -144.061265 -84.686888 166.080629
H -4.358947 2.109528 0.667550 -196.977500 121.803684 131.671707
H -3.241883 0.030588 -1.259414 127.023786 -86.921067 -108.777526
H -3.796549 1.645369 -1.712616 66.193682 93.247652 -149.420276
H -5.620188 -0.341627 -0.354572 -64.446160 -142.269783 144.667511
66
Lattice="100.000000 0.000000 0.000000 0.000000 100.000000 0.000000 0.000000 0.000000 100.000000" Properties=species:S:1:pos:R:3:REF_forces:R:3 E_kJmol=-52.616110670154 pbc="T T T"
O 3.448737 3.314284 -5.481799 253.711866 -434.436256 575.192960
O 5.763844 -1.350996 -3.671194 74.740762 305.356667 -529.587357
C 3.533659 2.178298 -5.051294 -853.214155 655.760690 -1731.256282
C 5.544016 -0.205784 -4.041010 -267.197521 -1390.112583 1588.820182
C 1.318209 -0.517747 0.847325 -4.560314 6.136309 -84.278075
C -4.670488 3.370759 4.906330 -28.683252 157.903298 81.758000
C -3.456300 3.015447 4.316697 82.986940 123.568763 15.237426
C -5.746352 2.482721 4.864698 -125.229069 43.969575 56.647779
C -3.318198 1.770204 3.693732 238.476993 -81.022100 -121.044038
C -5.605572 1.238296 4.241729 -172.372504 -177.777325 -18.078751
C -4.383796 0.848250 3.658846 12.375644 153.337492 118.165773
N 2.289231 -0.882476 1.639220 31.167271 -81.828100 -167.219919
N 6.147735 0.322028 -5.111355 555.388267 798.756302 -1300.383865
N 1.282436 -0.865472 -0.428358 186.592317 11.478161 -12.711531
N -4.123941 0.607733 0.754670 598.620094 -353.699318 -95.705028
N 4.199155 1.960769 -3.910330 730.064831 65.494230 1391.409108
N 0.365247 0.208253 1.359866 -159.270086 54.046954 -195.683654
C 2.870598 1.044143 -5.810326 241.653658 395.414193 -382.146717
C 7.093487 -0.392126 -5.970047 28.405886 -200.691122 85.161687
C 2.250561 -1.734436 -1.131825 -248.373568 32.682729 11.467178
C -4.811447 -0.432661 1.539731 13.572372 152.852521 -211.435501
C -2.898695 -2.579001 2.892952 249.561705 -221.884517 -89.922341
C -4.277171 -2.942846 3.433009 -105.450354 -307.463886 70.069250
C -2.800761 -1.059089 2.970246 187.281213 196.821008 -84.314456
C -4.970276 -1.624579 3.766267 -259.783598 77.923310 18.935794
C 3.536690 -1.000536 -1.547986 -450.789081 153.772417 66.788895
C -4.243943 -0.518773 2.977265 -89.698573 161.405137 83.993175
C 3.299134 -0.031341 -2.721225 203.788152 -87.042132 101.240440
C 4.568186 0.687488 -3.242761 -412.633457 240.841886 -306.206254
H -4.781948 4.336371 5.392004 1.648691 22.526845 10.736407
H -2.623305 3.711635 4.344464 25.898694 7.508226 -12.021427
H -6.694737 2.758432 5.317560 -25.833369 8.106265 6.564738
H -2.368332 1.529803 3.232942 4.547222 -2.500488 -14.392123
H -6.464008 0.574674 4.220410 -13.993679 -23.616984 -15.387796
H 3.023868 -1.458828 1.268705 357.020962 -116.423231 333.724088
H 2.290616 -0.620620 2.607875 380.464143 -163.135058 260.147547
H 5.936910 1.281168 -5.338273 -76.643747 121.378875 89.235492
H 0.488146 -0.552513 -0.963299 8.414151 -103.199699 -372.762143
H -4.177284 1.497158 1.257812 -288.822727 65.110832 -76.686946
H -4.555882 0.699591 -0.165749 -178.586492 216.504051 96.909393
H 4.543917 2.816835 -3.496807 -60.890413 137.054334 -164.115265
H -0.431669 0.471035 0.802242 -311.618652 225.901732 242.554559
H 0.391171 0.465446 2.329118 -356.048799 252.645804 169.985824
H 1.969338 0.743845 -5.281694 -16.226834 -274.068180 185.759895
H 2.594442 1.403542 -6.801822 -146.013701 40.755007 -125.432280
H 3.542956 0.198055 -5.918651 -61.589384 -331.508345 300.939811
H 8.048406 -0.512047 -5.453997 144.346263 -2.141577 100.207465
H 7.255960 0.162564 -6.896086 14.816282 107.665355 -140.473284
H 6.703974 -1.383297 -6.214350 -78.323011 -144.553336 -38.156682
H 2.520037 -2.573405 -0.487367 47.138795 -206.119754 77.051224
H 1.781036 -2.156683 -2.023338 -68.424656 -129.663898 -154.115634
H -4.711751 -1.399062 1.034121 -1.159111 -95.385716 -12.607489
H -5.881079 -0.199198 1.587943 -81.795208 17.985068 50.447690
H -2.103709 -3.055121 3.475388 76.913064 -56.559448 25.041794
H -2.810088 -2.910813 1.853625 17.965225 -36.939071 -88.917225
H -4.844370 -3.488100 2.671783 -54.416020 -66.850235 -51.981324
H -4.201668 -3.575373 4.323590 -15.055908 -78.822529 55.951744
H -2.297894 -0.790130 3.905261 26.235872 22.666231 83.160058
H -2.217180 -0.659990 2.136869 89.253284 43.380227 -13.693435
H -4.875259 -1.437248 4.841662 8.869099 18.472294 87.932392
H -6.036996 -1.671816 3.524275 -104.774609 8.811146 47.025910
H 3.947542 -0.453823 -0.698847 181.343837 40.212566 126.983014
H 4.255298 -1.764108 -1.836150 216.382216 -140.701321 3.209959
H 2.583417 0.722682 -2.389457 -162.580640 114.211067 -25.204211
H 2.848654 -0.591034 -3.541026 -132.631734 -43.709480 -145.031718
H 5.147484 0.969561 -2.363808 123.038488 93.438106 162.496118
56
Lattice="100.000000 0.000000 0.000000 0.000000 100.000000 0.000000 0.000000 0.000000 100.000000" Properties=species:S:1:pos:R:3:REF_forces:R:3 E_kJmol=-54.755025327287 pbc="T T T"
O -1.261339 3.784434 5.789495 -245.641152 -143.454620 -499.563306
O -0.087114 1.089689 0.796122 -380.291600 -272.157697 55.628218
O 0.966346 3.415679 2.754533 -470.724049 381.411103 -186.652839
C -2.265383 3.892867 5.103503 616.699430 655.816205 1987.986270
C -0.988285 0.744930 1.530701 816.261252 1960.068425 -569.954588
C -0.219819 3.640953 2.555161 1170.119266 -1542.921486 794.250131
C 2.113825 0.992706 -3.008549 27.184091 176.517405 -19.314117
C 0.926460 0.516351 -2.450958 -90.025616 102.156358 48.074708
C 3.104675 0.091272 -3.401978 114.870132 64.168119 -71.477042
C 0.724930 -0.858540 -2.298956 -207.655567 -106.718989 110.970794
C 2.903332 -1.284295 -3.244727 158.680601 -189.711477 -77.062697
C 1.703833 -1.787729 -2.703710 -15.232623 174.465468 -62.097682
N -1.178311 -0.535240 1.753669 -155.296262 -1505.982701 303.542938
N -0.541658 4.738942 1.855595 -201.056942 1436.940096 -808.244324
N 1.684980 -2.939728 -0.031353 -459.944323 -334.973264 31.514002
N -2.370288 3.402847 3.869337 -534.752945 -452.495027 -1372.695810
C -3.484332 4.596817 5.652890 492.719709 61.864441 404.801839
C -1.857167 5.262857 1.486811 -37.341823 -152.762625 79.627297
C 2.196535 -3.713156 -1.176498 3.169742 71.164586 235.691578
C 0.015386 -5.198932 -2.940204 -260.597744 -203.830417 13.236286
C 1.300777 -5.425498 -3.729358 75.883181 -263.446975 -160.200654
C 0.030068 -3.732550 -2.519531 -146.455590 163.192369 187.348350
C 2.073384 -4.109150 -3.679338 265.756793 57.687196 -6.427968
C 1.507696 -3.294184 -2.499676 99.840133 170.574853 -12.446513
C -1.952883 1.744536 2.148585 -155.148607 -219.469081 -131.499705
C -1.291093 2.697397 3.167132 -185.276712 -206.980260 42.997986
H 2.270785 2.061400 -3.119196 10.649474 21.733361 6.357266
H 0.165534 1.214537 -2.113959 -7.923968 22.720032 18.942761
H 4.035102 0.459985 -3.822721 22.032680 8.809022 -8.581353
H -0.199705 -1.192396 -1.840179 5.166048 -4.901005 20.944794
H 3.696898 -1.960205 -3.545158 7.445133 -11.052361 12.254542
H -0.517090 -1.155581 1.313935 65.599533 -73.529093 -32.257628
H -1.902750 -0.858558 2.363232 -106.488937 -21.415326 84.057839
H 0.265976 5.252794 1.535971 144.803803 -143.171053 89.433671
H 1.709126 -1.940533 -0.255118 273.859417 57.718231 59.514666
H 2.231619 -3.130199 0.807992 122.021652 220.955291 -59.863282
H -3.235658 3.545065 3.379133 -127.488407 99.645467 84.514974
H -4.312881 3.893942 5.712739 -286.739361 8.029319 -324.239081
H -3.253454 4.969080 6.650369 -43.224391 85.407587 187.716833
H -3.745746 5.431711 5.007023 -326.175173 -61.075203 -313.113637
H -2.374672 5.632390 2.373251 -86.508731 43.568635 150.001849
H -2.455010 4.493228 0.998662 -91.645709 -132.462728 -60.085936
H -1.731875 6.094325 0.790477 36.624406 120.140886 -105.275927
H 3.275316 -3.544903 -1.265601 73.639666 33.807880 -53.432365
H 2.047012 -4.781964 -0.991488 -5.525216 -94.354129 -15.499410
H -0.870376 -5.426259 -3.541914 -79.325761 -38.839478 -24.654732
H 0.003911 -5.842952 -2.055150 -10.019743 -60.441586 73.872744
H 1.086515 -5.707694 -4.765214 -5.496838 -49.480466 -76.486937
H 1.884377 -6.228642 -3.268275 50.568681 -75.810576 24.718953
H -0.457806 -3.595494 -1.549365 -87.425080 44.315654 49.553801
H -0.521456 -3.147863 -3.263339 -40.113616 42.686774 -70.944954
H 3.148341 -4.289966 -3.578976 96.048027 18.020325 -44.318620
H 1.907234 -3.566782 -4.616637 -17.374898 45.353967 -75.075435
H -2.747770 1.190972 2.647842 -106.763380 -82.202950 97.940130
H -2.398925 2.313585 1.335974 9.964915 133.667534 -134.592751
H -0.757123 2.083702 3.896990 214.073038 -38.965885 120.564087
56
Lattice="100.000000 0.000000 0.000000 0.000000 100.000000 0.000000 0.000000 0.000000 100.000000" Properties=species:S:1:pos:R:3:REF_forces:R:3 E_kJmol=-64.653181700129 pbc="T T T"
O -3.698666 -3.759630 -4.547973 -0.268814 140.771755 568.521384
O -0.399103 -1.033993 -0.468159 -353.214773 265.562926 34.211489
O -0.270398 -3.194256 -2.763540 -426.195727 -384.519501 196.229662
C -4.299435 -3.827801 -3.487530 -340.182243 -728.637174 -2050.018325
C -1.524258 -0.737230 -0.808016 1020.348548 -1894.423120 365.565452
C -1.330226 -3.571313 -2.276423 1139.725518 1745.969330 -825.323714
C 3.185178 -0.890095 2.048159 51.791615 -173.659904 12.339371
C 1.850523 -0.483317 2.050583 -83.466383 -110.217683 -0.317905
C 4.199356 0.063853 1.945866 145.227876 -43.671573 17.607316
C 1.531612 0.874506 1.961559 -253.915231 84.183942 -11.325508
C 3.877490 1.422225 1.847582 163.955711 207.949203 -3.131089
C 2.537554 1.856619 1.866320 16.917603 -175.447584 70.551776
N -1.820533 0.527780 -1.001887 -306.589439 1479.285578 -303.071039
N -1.495972 -4.825813 -1.832279 -475.729644 -1454.506686 616.577788
N 1.269404 2.842132 -0.554061 -467.040726 319.287880 141.699343
N -3.831464 -3.325904 -2.345801 165.050147 463.182758 1439.267735
C -5.649377 -4.500023 -3.420378 162.512570 95.592925 -608.713605
C -0.449869 -5.845270 -1.864731 182.804172 164.425715 -133.300316
C 2.186802 3.707203 0.208845 -98.674101 -100.944600 -211.549695
C 0.942277 5.214456 2.714861 -245.244629 199.923380 82.229648
C 2.430066 5.546506 2.784498 119.202745 270.117807 107.240211
C 0.851819 3.728783 2.376523 -205.477042 -171.910248 -86.574647
C 3.170159 4.245678 2.483667 249.369435 -51.142967 -111.210160
C 2.188390 3.341918 1.714493 97.455834 -178.714588 -30.866521
C -2.627229 -1.776583 -0.936796 -62.986836 163.412235 343.598797
C -2.548781 -2.617125 -2.228295 -192.032877 175.366744 43.471167
H 3.431015 -1.945928 2.108541 5.965737 -22.782378 -2.212756
H 1.056595 -1.223228 2.097975 -15.175230 -19.063413 -9.009863
H 5.238482 -0.250409 1.933702 21.511429 -10.739400 -10.870461
H 0.482890 1.150919 1.943886 -9.859519 11.596450 -34.644338
H 4.685363 2.139200 1.750510 9.876642 10.783861 -14.736032
H -1.057808 1.176690 -0.880919 68.854068 69.419561 -0.754591
H -2.734742 0.813395 -1.289121 -136.779167 22.244719 -38.098521
H -2.406414 -5.085937 -1.494253 -30.778441 168.403230 -50.060335
H 1.389456 2.983955 -1.556432 153.671801 -213.608482 6.801059
H 1.442421 1.861971 -0.308892 231.355467 -64.165635 -178.815997
H -4.402984 -3.413205 -1.522507 -156.154332 -78.051170 -18.280433
H -5.581979 -5.385438 -2.792355 -130.726497 19.017458 407.675353
H -6.380266 -3.804963 -3.012359 -105.721133 -49.074811 437.213395
H -5.947112 -4.790655 -4.427169 -112.720796 -113.081891 -145.157077
H 0.360555 -5.556768 -1.193143 123.834924 33.845455 140.481160
H -0.848670 -6.813806 -1.561358 -102.832298 -149.247290 65.943216
H -0.046722 -5.921923 -2.877061 39.772191 -37.953641 -159.765007
H 1.899143 4.754965 0.071416 2.666533 88.396711 6.839466
H 3.201010 3.591675 -0.189096 86.943519 -37.532554 17.690819
H 0.464202 5.808928 1.929514 -47.460558 57.633871 -50.496267
H 0.439712 5.428899 3.663346 -59.932385 40.532658 60.729995
H 2.676897 6.306126 2.035582 27.371236 67.259119 -48.500602
H 2.707726 5.932304 3.770598 29.163980 60.908124 65.410323
H 0.721432 3.164411 3.306074 -10.300438 -39.801041 77.954594
H -0.006350 3.522333 1.728565 -97.719586 -45.487246 13.125119
H 3.445901 3.768008 3.430308 25.254858 -39.363427 76.507785
H 4.088289 4.436271 1.918444 98.111287 -5.496527 2.422363
H -3.585101 -1.258322 -0.902490 -142.004078 101.961520 -148.808956
H -2.566227 -2.432755 -0.069366 111.014627 -185.506853 82.541243
H -2.442032 -1.940013 -3.079031 119.452978 51.716587 -214.833438
57
Lattice="100.000000 0.000000 0.000000 0.000000 100.000000 0.000000 0.000000 0.000000 100.000000" Properties=species:S:1:pos:R:3:REF_forces:R:3 E_kJmol=469.915584287589 pbc="T T T"
O 3.831371 2.075205 4.646219 -427.924863 -829.317812 -411.759992
O 3.345470 -0.817813 0.054762 -1716.660442 -248.767254 206.723612
O 0.827442 1.569342 2.566580 208.560872 -532.591403 327.371396
O 1.376306 -0.633214 -0.950337 967.331307 -223.966186 1699.990561
C 4.209793 0.915496 4.711128 1013.401169 2065.883686 1221.831193
C 2.096956 -0.919790 0.032708 582.551549 229.198041 -2280.634730
C 1.337075 0.824664 3.395746 222.319967 1058.651715 -1631.715071
C -3.601703 -3.123020 -4.686165 -27.829364 -150.655070 -61.614475
C -2.232020 -2.875994 -4.570687 134.440362 -81.972798 8.417912
C -4.517821 -2.173021 -4.227305 -119.287182 -21.402182 -1.324179
C -1.782155 -1.676956 -4.009468 284.914106 96.226290 100.813269
C -4.063224 -0.970610 -3.673041 -96.348453 209.167861 102.958315
C -2.686864 -0.689109 -3.573271 -31.420461 -157.180562 -85.154746
N 0.758670 0.761286 4.604467 -703.672303 15.372521 1184.392480
N -1.477493 -0.674049 -0.919380 544.314113 -257.031509 249.080127
N 3.636105 -0.104176 4.077007 -977.256432 -1379.576470 -913.413149
C 5.395156 0.562888 5.575513 -121.622459 615.009917 -198.351160
C 1.113506 -0.056857 5.762699 179.485901 -86.344920 -101.020846
C 1.393611 -1.481699 1.280457 681.472869 477.296931 545.634268
C -2.165241 0.526031 -1.414410 24.554261 -6.359957 156.696961
C -0.759812 2.590805 -3.389079 300.044129 160.786012 22.487909
C -2.205032 3.070484 -3.302168 -59.569092 291.105830 18.315054
C -0.819631 1.070914 -3.513185 210.695967 -242.722758 117.492818
C -3.072958 1.818470 -3.388392 -219.002834 -65.081759 73.038805
C -2.190624 0.628398 -2.963264 -100.870111 -178.538994 4.770221
C 2.240845 -1.406553 2.562901 -25.838836 8.581046 263.863847
C 2.608274 0.018590 3.027028 98.579789 -218.927987 87.804155
H -3.949884 -4.057041 -5.114862 -39.129027 -34.520950 -23.528436
H -1.508893 -3.616577 -4.897774 -33.183768 -52.013410 -46.854051
H -5.583015 -2.368744 -4.293790 -47.947144 -10.718350 -25.681651
H -0.713263 -1.526016 -3.888706 -40.996302 -33.113065 -85.607286
H -4.790720 -0.254202 -3.308599 -53.417153 0.245750 -16.610296
H -0.028089 1.383373 4.697210 -147.214237 245.602650 -26.642116
H -1.490843 -0.703844 0.096654 -135.571641 115.740639 -158.333581
H -0.490058 -0.678745 -1.234747 -483.323326 130.687071 -58.127234
H 4.057915 -1.010055 4.178763 365.425077 -69.729784 287.512810
H 6.149578 0.076980 4.959607 56.146035 -439.189883 60.840492
H 5.069803 -0.101523 6.371811 117.819837 -421.788588 4.157661
H 5.805493 1.477619 5.999836 136.294309 137.911119 163.107959
H 0.260059 -0.126172 6.437504 -178.585923 -23.116814 198.495039
H 1.394449 -1.062043 5.448669 49.099847 -203.011834 35.126851
H 1.946670 0.405755 6.293869 153.696596 81.005646 169.905035
H 1.154894 -2.532593 1.100789 -256.556000 16.091586 -346.031353
H 0.447173 -0.961565 1.443354 -361.908162 -316.497361 -579.408903
H -1.681273 1.412662 -0.990823 -24.036551 113.234291 -9.949324
H -3.194726 0.507065 -1.042951 -119.142223 11.659374 -11.289319
H -0.240506 3.030522 -4.246044 58.570949 62.395396 -67.771402
H -0.218004 2.869534 -2.479266 48.412443 53.871785 51.148878
H -2.444554 3.768437 -4.110182 -32.824254 89.768668 -57.479663
H -2.367602 3.579371 -2.346718 -36.522892 65.514952 64.382119
H 0.009455 0.597076 -2.976569 64.223105 -31.309262 -59.346541
H -0.735862 0.804543 -4.571928 -11.124313 -22.515971 -103.151364
H -3.397182 1.684376 -4.426060 -36.439998 -10.076378 -93.937771
H -3.965500 1.916602 -2.762536 -123.354641 3.537682 -15.472850
H 3.157130 -1.978548 2.405134 186.181447 -178.235571 -24.817585
H 1.689188 -1.905353 3.360272 -27.608935 -191.281829 143.497181
H 3.062164 0.539393 2.181023 127.653641 363.010085 -74.827969
57
Lattice="100.000000 0.000000 0.000000 0.000000 100.000000 0.000000 0.000000 0.000000 100.000000" Properties=species:S:1:pos:R:3:REF_forces:R:3 E_kJmol=420.999951427339 pbc="T T T"
O 2.603889 -0.496827 5.462185 -692.630273 502.593730 -668.783591
O -0.873842 -0.019959 1.333173 184.149151 -1390.320999 979.379893
O -0.288930 2.915655 4.794903 523.234149 -546.560754 90.579955
O -0.387938 -2.142704 1.034479 -33.234863 1193.038896 1503.201189
C 2.640923 -0.469689 4.238854 1761.634430 -1015.141931 1712.865440
C -0.647648 -1.168207 1.772554 -517.115827 -432.110862 -2303.627099
C 0.548566 2.016379 4.862152 -1623.661383 1108.693700 -842.323218
C -2.280066 -3.497361 -5.248829 -62.905106 -144.923344 -54.079274
C -0.911853 -3.218815 -5.230238 85.924122 -86.753815 -20.744315
C -3.181714 -2.576369 -4.711104 -137.781535 -24.996501 44.613331
C -0.450243 -2.016871 -4.683983 237.705153 95.026322 77.671971
C -2.716023 -1.375260 -4.166766 -119.321015 200.206240 158.739927
C -1.344386 -1.062015 -4.159066 -63.407497 -138.635115 -100.323204
N 1.506794 2.028048 5.796342 1196.685597 -409.576657 764.651122
N 0.029831 -1.127747 -1.636826 520.861468 369.958799 791.285066
N 1.780858 0.190184 3.466138 -1322.127476 698.193453 -1245.960674
C 3.725274 -1.222517 3.507134 -110.282002 -5.465763 561.102487
C 1.666439 3.030379 6.848580 -171.213541 98.365802 -60.780662
C -0.658395 -1.420985 3.290827 364.626598 1011.143429 167.441503
C -0.747579 0.064976 -1.991576 12.943136 -110.164272 25.026879
C 0.531365 2.247948 -3.944666 256.161207 177.182616 13.692200
C -0.919250 2.697464 -3.805346 -99.723734 288.715833 51.244229
C 0.493355 0.732788 -4.120028 179.457287 -219.908340 71.565769
C -1.771253 1.431724 -3.863032 -226.194628 -73.030079 106.101935
C -0.845317 0.245519 -3.529864 -121.887151 -170.496289 19.979524
C -0.568864 -0.165286 4.184142 -30.030330 76.093211 36.481694
C 0.515404 0.871936 3.824486 74.004126 -412.619080 294.465890
H -2.640471 -4.432753 -5.664612 -13.778904 -41.604257 -36.741060
H -0.202636 -3.939030 -5.626034 9.875219 -33.507264 -39.357506
H -4.244567 -2.795655 -4.699813 -44.333819 -26.615563 -46.499659
H 0.619712 -1.839978 -4.647140 23.804361 -12.631827 -47.826309
H -3.431764 -0.687246 -3.729927 -49.966369 6.288820 -38.410085
H 2.120739 1.220757 5.807886 124.710937 -209.338765 20.127679
H -0.358594 -1.943032 -2.105366 -192.685960 -137.786775 -85.342963
H -0.018991 -1.279253 -0.611492 -88.224933 -196.278658 -788.740996
H 1.915099 0.081820 2.471501 515.885967 36.976210 -136.291029
H 4.272814 -0.537540 2.863243 -50.940920 0.639469 -422.750510
H 3.260336 -2.001817 2.904528 35.960349 50.354161 -401.574660
H 4.400187 -1.673492 4.231954 200.766922 -143.457318 88.760751
H 1.402201 2.591868 7.811417 -32.640630 -46.532667 241.217827
H 2.701507 3.370739 6.877400 228.341045 108.604400 52.750444
H 1.015869 3.886694 6.661279 -91.593158 227.939655 22.635490
H 0.179640 -2.076000 3.542781 -338.827236 -636.144135 -244.886570
H -1.572860 -1.958248 3.553769 77.870487 -406.050191 -209.704615
H -0.293970 0.946366 -1.527609 25.011086 122.259926 -20.689797
H -1.753566 -0.038612 -1.570395 -108.892038 3.245564 -58.231809
H 1.020342 2.728201 -4.797999 65.323530 56.771091 -56.368021
H 1.087985 2.506190 -3.037611 59.351364 31.126092 46.767663
H -1.199483 3.392137 -4.603327 -35.763524 83.766862 -52.519708
H -1.059196 3.201720 -2.843435 -20.852909 68.790750 50.946256
H 1.351599 0.257073 -3.633916 93.877990 -55.462117 -39.960501
H 0.535644 0.504430 -5.189970 -3.027617 -15.562473 -100.750749
H -2.170507 1.317553 -4.876719 -23.173844 -5.772182 -94.656462
H -2.616910 1.499238 -3.170629 -115.080893 1.885740 -21.389406
H -1.537093 0.337252 4.159570 -235.745407 136.669692 101.847014
H -0.405463 -0.499419 5.209986 -42.737377 -27.159875 259.701374
H 0.172998 1.367646 2.916055 -38.383609 420.077479 -115.529870
57
Lattice="100.000000 0.000000 0.000000 0.000000 100.000000 0.000000 0.000000 0.000000 100.000000" Properties=species:S:1:pos:R:3:REF_forces:R:3 E_kJmol=437.451812217727 pbc="T T T"
O -1.629619 -3.993395 4.858745 263.724537 928.077345 -282.821346
O -2.890435 0.315911 1.748556 1665.512297 286.926117 -505.893686
O 0.137528 -2.686443 1.908917 22.954119 380.503225 550.876754
O -1.600174 0.673929 -0.019248 -92.781373 -471.881988 1899.688374
C -1.825909 -2.939831 5.444723 -594.072124 -2415.399126 812.503077
C -1.775773 0.510997 1.209487 -1502.260209 522.275805 -1686.952552
C 0.156798 -2.277918 3.064250 -1070.808813 -482.947400 -1585.967525
C 1.227217 5.020927 -4.130322 2.737731 159.622039 12.199844
C 0.046735 4.531981 -3.566279 -114.042607 55.401466 103.693196
C 2.232349 4.129935 -4.513575 102.028230 37.095553 -35.622753
C -0.131477 3.155256 -3.396623 -220.003945 -163.180530 185.632087
C 2.048958 2.752749 -4.345955 122.443970 -213.877137 -25.372707
C 0.856928 2.237203 -3.801057 -30.593049 177.660861 -22.211255
N 1.223970 -2.594939 3.811903 1154.879839 -364.421460 648.921381
N 1.009745 1.079545 -1.145510 -105.162474 -586.314583 1158.146583
N -1.472530 -1.742954 4.985051 639.749774 1674.946411 -736.981532
C -2.493946 -2.950055 6.798513 138.558412 -519.919725 -336.749908
C 1.528646 -2.231370 5.194186 -195.438218 103.653546 28.487767
C -0.535975 0.615731 2.114386 -490.346912 -656.825175 670.034421
C 1.418417 0.289535 -2.312420 -25.159834 47.169408 74.380473
C -0.817966 -1.184223 -3.999732 -261.727101 -212.850297 69.494739
C 0.449011 -1.399888 -4.820739 63.946180 -268.759344 -140.810842
C -0.798955 0.278422 -3.569151 -136.388897 159.565349 256.292661
C 1.198390 -0.070107 -4.807660 253.725505 53.865430 -9.256875
C 0.675240 0.727795 -3.599738 79.746403 172.083425 23.135272
C -0.748589 0.061647 3.531582 139.988906 -101.800633 213.479161
C -1.036474 -1.451727 3.607725 -39.267464 179.249180 193.391661
H 1.367419 6.089919 -4.255456 18.203401 47.903651 -26.550691
H -0.731524 5.216598 -3.242712 -3.690690 65.146701 -42.440311
H 3.159496 4.504848 -4.935290 33.048057 26.503611 -38.576811
H -1.045269 2.802827 -2.925558 -6.498662 69.453448 -66.281761
H 2.848721 2.080130 -4.636007 41.525029 2.767178 -32.667436
H 1.890214 -3.169547 3.321585 91.753249 -212.269751 -169.706476
H 0.968378 2.067739 -1.387031 -74.901247 147.212937 -321.918837
H 0.079818 0.774274 -0.800844 280.601117 396.497190 -728.154753
H -1.704478 -0.943715 5.547231 -204.518198 -60.504748 435.747706
H -2.665220 -3.983836 7.094247 -100.915905 -176.350460 154.599864
H -1.850554 -2.456490 7.522781 -110.443958 396.939690 153.126983
H -3.446370 -2.427996 6.724875 -32.296286 369.041714 171.628944
H 1.299418 -1.180908 5.371213 8.289485 182.173849 114.104104
H 2.587610 -2.398603 5.391973 248.048818 -42.218775 89.805995
H 0.941290 -2.851328 5.872565 -76.053973 -144.192382 188.616045
H 0.307982 0.098813 1.653806 172.848643 541.731862 -598.581566
H -0.259056 1.668650 2.208112 120.601708 98.111312 -468.540975
H 2.495348 0.420079 -2.459993 91.091726 41.284630 -79.022850
H 1.243055 -0.771954 -2.108379 35.463523 -102.539561 -45.757040
H -1.717174 -1.411048 -4.580370 -94.231108 -40.014044 -43.070231
H -0.807246 -1.832051 -3.117042 -7.129183 -75.837976 47.971902
H 0.212912 -1.701008 -5.845703 -5.616289 -62.250912 -101.276619
H 1.057824 -2.184995 -4.361570 64.638895 -82.764351 8.748731
H -1.251530 0.403109 -2.580616 -79.781031 42.310551 -21.085724
H -1.384753 0.862782 -4.285627 -45.483851 49.120355 -99.053078
H 2.280039 -0.229270 -4.760054 104.973212 12.845014 -68.079375
H 0.973735 0.472505 -5.731939 -11.448994 51.724885 -97.012736
H -1.571785 0.607373 3.996997 -148.492725 165.515160 117.005574
H 0.145748 0.279837 4.115546 113.946954 132.089913 160.534024
H -1.876159 -1.665448 2.943244 -195.474559 -319.348489 -125.829042
57
Lattice="100.000000 0.000000 0.000000 0.000000 100.000000 0.000000 0.000000 0.000000 100.000000" Properties=species:S:1:pos:R:3:REF_forces:R:3 E_kJmol=419.134963510475 pbc="T T T"
O -0.013249 -1.828918 5.691709 308.667367 -167.321158 -1039.778160
O 1.415915 -0.441766 0.711076 387.865099 912.892925 1413.124085
O 2.132203 -4.503794 2.762265 -425.110306 419.740186 477.232218
O 1.071968 1.597372 1.454819 549.736638 -1652.536129 798.863091
C -0.534482 -1.406222 4.667396 -873.307891 146.158250 2540.089885
C 1.512174 0.436352 1.595810 -433.659538 1286.504958 -1960.900795
C 1.430070 -3.770547 3.458193 1113.722808 -548.548534 -1723.523595
C -0.143518 5.494743 -3.876567 40.298859 158.409785 -0.491969
C -1.353057 5.015075 -3.369925 -83.190891 75.657285 61.967228
C 0.878813 4.597588 -4.193392 133.737386 19.374677 -28.026123
C -1.541478 3.640721 -3.191331 -191.182719 -151.422294 123.268384
C 0.685732 3.223423 -4.014950 160.731609 -231.834987 -0.737420
C -0.533460 2.715575 -3.527956 5.750024 169.023555 -37.416142
N 0.879720 -4.218725 4.591563 -765.632193 -38.229116 1240.738173
N -0.648745 1.560822 -0.848156 -29.489244 -710.911413 714.353236
N -0.108769 -1.669419 3.434412 637.072262 -88.897882 -1835.548275
C -1.754111 -0.522752 4.759653 485.248762 32.715270 415.469483
C 1.062327 -5.563174 5.130387 116.381556 -46.379270 -143.251231
C 2.171296 0.094571 2.944684 -341.630985 -1044.827156 -85.088973
C -0.073353 0.801478 -1.964002 -34.019560 94.016007 106.362895
C -2.180060 -0.716746 -3.755212 -235.927426 -221.782132 27.433385
C -0.881722 -0.935897 -4.524994 108.605912 -267.578205 -127.598038
C -2.194819 0.758215 -3.371520 -134.647680 153.454125 193.489158
C -0.112717 0.383315 -4.461529 273.457759 45.794396 24.726532
C -0.722047 1.208140 -3.312180 116.998109 168.278008 29.783483
C 2.350886 -1.407603 3.254263 44.710333 -95.106094 -19.119526
C 1.141172 -2.327124 2.991223 68.657488 268.217143 430.080709
H 0.008072 6.561384 -4.007235 -3.311978 52.434770 -25.240863
H -2.144399 5.707453 -3.100637 -30.028424 44.938812 -17.418176
H 1.829187 4.963934 -4.568435 21.296014 42.428629 -37.395451
H -2.478993 3.296242 -2.767658 -41.038928 26.546535 -14.428076
H 1.501029 2.545978 -4.245666 25.206281 18.983818 -50.347515
H 0.368275 -3.537422 5.142411 -80.059096 172.888200 131.823744
H -0.566630 2.557492 -1.034205 145.319882 201.360246 -86.889172
H -0.120960 1.340305 0.017218 -287.248038 507.153137 -599.772448
H -0.616183 -1.216371 2.687684 -525.053313 -36.767277 83.661887
H -2.606760 -1.043636 4.330421 -180.245689 89.456997 -351.153960
H -1.567291 0.398107 4.207398 -243.456424 19.839782 -357.768817
H -1.944511 -0.288262 5.805072 -175.679691 49.359258 211.496718
H 2.129113 -5.784645 5.198158 201.660615 -111.526219 64.763815
H 0.613346 -5.631935 6.121517 -92.119009 -73.198192 224.109901
H 0.594957 -6.288413 4.462862 -104.053224 -211.097902 -90.744556
H 3.154691 0.568283 2.991254 -127.254114 468.613114 10.755261
H 1.570582 0.532785 3.745701 258.402205 710.594661 -99.169096
H 1.005057 0.990064 -2.000958 70.615903 49.445313 -100.830951
H -0.204631 -0.269377 -1.777257 -33.566335 -94.467989 -64.619528
H -3.055576 -0.977390 -4.357429 -94.032784 -44.185567 -37.110071
H -2.184937 -1.336528 -2.852495 -24.335800 -55.183462 57.727986
H -1.079465 -1.217145 -5.563835 -5.400049 -49.702679 -98.562712
H -0.302147 -1.737239 -4.055096 43.753719 -79.292078 1.629236
H -2.715046 0.913411 -2.420738 -107.581768 46.981388 23.524633
H -2.724350 1.319767 -4.147848 -53.309799 44.881238 -82.222452
H 0.957480 0.205145 -4.313570 92.955230 20.251952 -67.369894
H -0.241007 0.916650 -5.409337 -19.666712 47.442951 -93.464515
H 3.189238 -1.779471 2.663489 251.428001 -135.017188 -64.800145
H 2.632471 -1.498068 4.304699 151.617552 -61.977204 208.516117
H 1.062705 -2.425798 1.908779 -38.657498 -346.047466 -274.202636
57
Lattice="100.000000 0.000000 0.000000 0.000000 100.000000 0.000000 0.000000 0.000000 100.000000" Properties=species:S:1:pos:R:3:REF_forces:R:3 E_kJmol=470.508315404114 pbc="T T T"
O -3.413951 4.008280 -3.661928 323.522093 -945.218591 140.291912
O -3.413289 -0.361030 -0.353933 1706.341269 -279.965593 -203.041227
O -0.583892 2.582506 -1.750665 -252.715128 -357.614064 -516.973995
O -1.515819 -0.700052 0.742428 -891.079224 488.410238 -1686.150042
C -3.901949 2.968647 -4.078585 -796.515127 2442.700727 -478.792333
C -2.176287 -0.554889 -0.310246 -718.881645 -574.763583 2159.925927
C -1.103402 2.223259 -2.801472 -219.760367 436.893582 1893.882741
C 3.052823 -5.010722 3.293469 21.188591 -155.437726 4.559935
C 1.722174 -4.588665 3.258293 -134.308323 -66.772294 -40.018404
C 4.080193 -4.069038 3.196346 119.988758 -20.348344 2.253220
C 1.421954 -3.227892 3.137661 -273.295648 153.400778 -67.965666
C 3.775483 -2.707378 3.082402 119.367041 234.364338 -17.789107
C 2.441066 -2.257389 3.071699 5.531367 -173.668334 43.489301
N -0.475961 2.547920 -3.940906 754.176632 368.274619 -1092.736516
N 1.279119 -1.159312 0.591027 -529.093846 -93.259472 -379.121282
N -3.430024 1.753837 -3.810777 836.788913 -1693.618547 395.715029
C -5.114119 3.019260 -4.977807 272.205311 512.504669 263.025961
C -0.837604 2.232248 -5.321211 -191.939474 -91.994290 53.505583
C -1.409534 -0.665765 -1.639863 -681.668207 667.013284 -396.970684
C 2.164437 -0.352013 1.440809 -67.882932 60.748066 -134.493202
C 0.848309 1.099823 3.932977 -266.600374 201.292284 35.878094
C 2.334671 1.415810 4.064651 111.397270 258.103216 94.787725
C 0.761185 -0.379728 3.574023 -221.029482 -168.815965 -169.420853
C 3.076050 0.116346 3.753645 220.369521 -54.305370 -116.710288
C 2.111142 -0.765036 2.935456 80.305125 -173.239153 -53.732621
C -2.169493 -0.085628 -2.844363 43.749668 115.156655 -227.777599
C -2.435395 1.432053 -2.770933 -120.291780 -173.217159 -173.376348
H 3.285717 -6.067163 3.378108 26.649289 -46.079505 14.630401
H 0.915364 -5.313366 3.304447 12.032038 -56.614922 29.332333
H 5.116096 -4.391789 3.203354 45.873729 -28.266016 15.717798
H 0.380340 -2.928034 3.066360 35.142995 -64.319021 68.696546
H 4.587331 -1.994722 2.992064 56.440653 -8.972985 17.360110
H 0.354505 3.097101 -3.790426 164.693392 218.086399 110.938015
H 0.301518 -1.101924 0.930317 499.851148 30.334844 105.195044
H 1.305995 -0.833705 -0.371589 200.090173 14.864050 204.397217
H -3.930318 0.969706 -4.190165 -378.843175 75.862629 -305.821634
H -4.890767 2.522895 -5.919309 -170.400401 -393.329930 -75.264785
H -5.371122 4.061815 -5.158243 -144.665702 182.800532 -96.649181
H -5.942717 2.521445 -4.477068 -120.214875 -373.453802 -148.998339
H -1.598516 2.933132 -5.667782 -132.256890 160.485317 -132.495098
H 0.042601 2.321418 -5.957558 186.962323 30.774751 -206.868688
H -1.222872 1.215579 -5.394389 -57.211541 -179.615587 -104.111083
H -1.213112 -1.720992 -1.844135 248.510551 -123.952701 354.485322
H -0.441210 -0.168419 -1.554570 319.613499 -535.368183 438.068726
H 1.889473 0.702696 1.334514 29.425760 98.036971 61.904303
H 3.190791 -0.460760 1.076325 122.507572 -6.134500 11.569337
H 0.407947 1.702997 3.131850 -38.035438 68.654649 -27.702939
H 0.306062 1.310744 4.860092 -53.787730 38.600038 74.567176
H 2.610377 2.193237 3.344844 53.173941 76.931646 -31.012964
H 2.579660 1.773190 5.069794 35.802791 57.278708 78.563047
H 0.604243 -0.954799 4.492580 3.513645 -51.679917 91.806045
H -0.083455 -0.571662 2.905783 -67.390197 -56.493434 65.847904
H 3.325936 -0.384164 4.695596 23.266979 -47.929216 79.675559
H 4.008681 0.317126 3.216768 115.518137 -21.535840 13.637003
H -3.120510 -0.613156 -2.941497 -183.476134 -170.668398 -45.804045
H -1.594670 -0.299592 -3.746433 29.782629 -134.218191 -184.825127
H -2.891254 1.645714 -1.801826 -112.438636 329.297440 190.916772
57
Lattice="100.000000 0.000000 0.000000 0.000000 100.000000 0.000000 0.000000 0.000000 100.000000" Properties=species:S:1:pos:R:3:REF_forces:R:3 E_kJmol=438.164181643438 pbc="T T T"
O -2.244320 1.826863 -5.293139 637.258988 174.507658 869.554119
O 1.009726 0.505335 -1.159235 -225.807297 -904.502993 -1430.650318
O 0.683165 4.573755 -3.250233 -567.567090 -428.147151 -292.909745
O 0.262861 -1.483309 -1.736974 244.456551 1702.051818 -953.715437
C -2.357520 1.372586 -4.161919 -1680.705080 -186.721419 -2067.664349
C 0.711866 -0.351825 -2.019642 396.322536 -1304.745243 1955.321651
C -0.195163 3.815812 -3.661086 1654.195229 578.028962 1178.552865
C 1.669012 -5.522448 3.728685 47.543098 -155.921513 19.352085
C 0.338329 -5.100392 3.758925 -100.651624 -85.246179 -17.908124
C 2.689227 -4.582971 3.565353 139.179174 -14.088850 -7.736152
C 0.031092 -3.741591 3.631579 -231.895046 141.953413 -27.512047
C 2.378110 -3.224296 3.443652 131.715965 240.172267 -69.989614
C 1.044544 -2.773996 3.489130 32.542781 -158.176827 79.654988
N -1.140294 4.248076 -4.502918 -1172.030583 8.292230 -869.230616
N -0.298463 -1.682554 1.051689 299.751081 -6.769517 -625.266393
N -1.535218 1.641264 -3.149849 1246.989382 98.622441 1478.688050
C -3.501571 0.442382 -3.841750 228.307274 93.376800 -555.736129
C -1.238498 5.608031 -5.024717 161.459641 53.796351 95.655431
C 0.854527 -0.008282 -3.512449 -405.505705 883.770670 150.926622
C 0.748335 -0.962935 1.789112 -193.457336 37.232009 -78.460696
C -0.506989 0.636765 4.223883 -234.180756 213.876987 33.701915
C 0.984000 0.932097 4.351022 143.669433 267.493356 60.606927
C -0.616866 -0.860240 3.955332 -183.204371 -157.617791 -135.880683
C 1.711316 -0.379238 4.053554 242.665271 -52.773425 -131.765079
C 0.715938 -1.286930 3.305084 103.465559 -171.959706 -58.730561
C 0.837559 1.496305 -3.856971 43.218982 93.340235 7.638217
C -0.237346 2.355053 -3.159396 -74.516582 -257.451398 -433.247965
H 1.908534 -6.577358 3.814115 6.799161 -48.283574 18.736960
H -0.461649 -5.826709 3.857937 -20.396105 -42.944619 28.272835
H 3.724399 -4.904938 3.519304 38.611516 -39.223614 22.848930
H -1.011268 -3.443937 3.611981 -23.675798 -30.268652 26.684237
H 3.183404 -2.514712 3.287589 43.728416 -25.331969 39.250693
H -1.781146 3.544629 -4.854464 -113.506265 -166.680789 -102.492933
H -1.195642 -1.228896 1.179050 -98.668455 -17.922410 71.488739
H -0.058104 -1.691243 0.042114 -325.709466 -67.109794 593.219861
H -1.727555 1.154184 -2.286927 -525.045844 12.228140 98.946094
H -4.122548 0.889451 -3.068963 -13.902670 -137.602672 397.800551
H -3.095770 -0.505318 -3.488536 -79.047145 -66.226055 407.939406
H -4.088142 0.275317 -4.743271 -214.483966 -71.348284 -135.825819
H -0.333438 5.847375 -5.585401 157.976466 112.354238 -148.654515
H -2.105695 5.692601 -5.680153 -182.048070 80.863520 -155.046772
H -1.335162 6.311344 -4.195924 -44.947245 198.536362 132.016650
H 1.785745 -0.435928 -3.891765 -33.570487 -348.629516 63.940954
H 0.038248 -0.485578 -4.060236 290.041239 -681.583708 3.714672
H 0.631888 0.113009 1.620375 21.806164 84.272495 48.705034
H 1.723930 -1.246393 1.379519 106.260440 -61.248963 74.276209
H -0.923586 1.197801 3.380532 -48.232438 50.139376 -32.024134
H -1.052430 0.918418 5.129984 -69.803112 35.340525 66.762194
H 1.273041 1.699216 3.624835 37.006415 76.141276 -18.119787
H 1.233164 1.294567 5.353203 37.690922 52.361870 83.295053
H -0.748209 -1.382249 4.909024 1.026852 -40.254742 92.725235
H -1.482173 -1.084742 3.324400 -105.217383 -60.725378 43.820892
H 2.004884 -0.848466 4.998671 12.308046 -45.562045 91.893971
H 2.619107 -0.197810 3.468640 110.675616 -18.662088 20.378688
H 0.713967 1.590039 -4.936879 56.969028 72.695722 -257.230141
H 1.814619 1.912960 -3.608166 251.070135 151.074516 -25.427984
H 0.070230 2.440049 -2.117311 43.064743 341.207776 274.855058
57
Lattice="100.000000 0.000000 0.000000 0.000000 100.000000 0.000000 0.000000 0.000000 100.000000" Properties=species:S:1:pos:R:3:REF_forces:R:3 E_kJmol=437.063868698338 pbc="T T T"
O 1.758525 -2.044113 -5.933153 -263.215432 797.461769 576.090712
O 2.997196 0.743357 -1.438811 -1675.965983 207.556042 523.663567
O -0.185538 -1.737408 -2.817387 48.106564 557.316720 -365.419794
O 1.607061 0.526583 0.277795 172.963959 248.272992 -1926.733592
C 2.018955 -0.863361 -6.107008 543.033924 -2008.305177 -1598.840712
C 1.860443 0.813887 -0.915084 1397.132396 -256.989244 1832.005448
C -0.094059 -0.945447 -3.748004 921.604313 -1101.439664 1351.300344
C -1.235671 3.253559 5.621181 0.969128 152.071583 50.084974
C -0.056972 2.923402 4.949035 118.416447 87.538510 -70.806412
C -2.296371 2.345451 5.645429 -100.404675 21.035250 38.504427
C 0.063753 1.684454 4.311440 225.431892 -94.159322 -221.218203
C -2.171072 1.105286 5.008877 -131.218115 -210.573688 -55.511283
C -0.982111 0.741186 4.346462 45.249222 155.989822 77.150509
N -1.117287 -0.894378 -4.613642 -1119.846711 -18.724993 -784.980024
N -1.036314 0.599036 1.455945 163.968187 -147.175494 -1244.110519
N 1.690295 0.114884 -5.267766 -609.912860 1330.571273 1260.259489
C 2.747720 -0.435628 -7.357562 2.980534 -620.799676 218.536861
C -1.291034 -0.055470 -5.797312 202.042921 86.538764 24.771124
C 0.697543 1.343222 -1.772105 477.798568 -416.381126 -822.093337
C -1.526583 -0.537935 2.244784 25.317689 67.891260 -41.302989
C 0.530082 -2.649535 3.473656 248.478368 -183.497942 -162.224171
C -0.824643 -3.044623 4.051288 -79.009509 -288.376972 38.722809
C 0.594574 -1.125176 3.527963 154.535740 232.435052 -171.666682
C -1.499126 -1.743337 4.473284 -242.570052 76.833871 10.250612
C -0.857349 -0.616590 3.641288 -64.303518 173.103907 37.755027
C 0.973056 1.324710 -3.284993 -128.592000 -9.821469 -240.591443
C 1.180551 -0.075776 -3.897677 62.331807 228.954974 -115.280886
H -1.330648 4.217718 6.110399 -14.252810 37.180751 43.223708
H 0.765812 3.630703 4.906944 6.160333 44.161332 51.494672
H -3.220563 2.602090 6.153590 -34.574462 15.541434 34.583521
H 0.980246 1.467757 3.768813 -1.165630 10.238601 82.619906
H -3.013024 0.422279 5.027127 -48.340241 -5.093935 34.263030
H -1.849950 -1.549516 -4.393753 -118.186138 -252.566872 81.720765
H -0.987306 1.434752 2.035336 69.608308 19.022834 347.852873
H -0.097903 0.401095 1.059743 -287.121786 117.342948 774.479356
H 1.977913 1.047541 -5.505100 224.583267 83.252947 -407.172584
H 3.656456 0.092213 -7.074541 5.046243 437.658434 -60.381626
H 2.102204 0.212494 -7.944872 75.886517 416.571943 -33.199029
H 3.006519 -1.323855 -7.931593 67.139383 -118.749097 -216.829541
H -0.717490 -0.474110 -6.625749 68.960018 -68.507209 -221.053635
H -0.952559 0.960827 -5.596662 14.462430 211.118686 -46.523349
H -2.345182 -0.027980 -6.074316 -239.673898 20.260181 -112.522405
H -0.207621 0.768353 -1.567920 -180.864925 296.385664 741.008344
H 0.496400 2.377506 -1.483098 -148.000228 -60.854171 449.597803
H -1.357785 -1.463675 1.684616 -43.372441 -114.515466 8.106058
H -2.607779 -0.427551 2.375139 -100.036434 18.159008 80.178494
H 1.353438 -3.093756 4.041402 80.078672 -59.471763 38.484068
H 0.605775 -2.990557 2.435655 23.659554 -53.618981 -61.829985
H -1.421026 -3.546336 3.282415 -60.928081 -64.611554 -40.766117
H -0.715035 -3.724500 4.901911 -13.029852 -83.819397 65.086725
H 1.165372 -0.833066 4.415336 39.666941 19.823940 98.080282
H 1.106281 -0.722666 2.646936 80.210771 41.544386 29.678775
H -1.304931 -1.571809 5.537522 13.073069 11.309603 101.574403
H -2.582528 -1.798913 4.329435 -107.081190 -1.503260 58.744298
H 0.133933 1.806937 -3.787736 -93.567243 187.137843 -98.274999
H 1.855515 1.936134 -3.482749 169.573703 186.090855 -45.530108
H 1.959845 -0.580347 -3.322153 156.763327 -356.816709 4.990210
57
Lattice="100.000000 0.000000 0.000000 0.000000 100.000000 0.000000 0.000000 0.000000 100.000000" Properties=species:S:1:pos:R:3:REF_forces:R:3 E_kJmol=425.914832783652 pbc="T T T"
O 0.125239 0.445574 -6.108583 -333.195881 -507.293190 894.222065
O -1.030252 0.041463 -0.971318 -488.642768 1370.414611 -965.495586
O -2.196326 -2.976856 -4.279467 425.315038 523.842750 -313.358309
O -1.038831 2.220291 -0.725365 -457.407647 -1179.854605 -1320.218774
C 0.687328 0.406693 -5.021605 867.848149 996.633219 -2296.755702
C -1.284508 1.192023 -1.389511 657.973083 472.323413 2256.284045
C -1.472076 -2.073851 -4.696690 -1090.717393 -1084.001201 1479.301719
C 0.246168 3.680786 5.601381 -24.670637 152.043810 64.345388
C 1.439132 3.331631 4.965961 84.316924 93.174586 -50.174187
C -0.831589 2.793143 5.586689 -134.850934 27.653498 20.238693
C 1.556529 2.091074 4.330881 187.072070 -104.064336 -189.979966
C -0.709263 1.552454 4.951676 -174.046113 -203.561230 -82.100415
C 0.493955 1.166247 4.330658 5.155468 151.722915 92.780331
N -1.015668 -2.083903 -5.953405 712.141370 382.671338 -1206.210043
N 0.640028 0.892629 1.392105 63.892953 -313.238572 -876.262232
N 0.241463 -0.257691 -3.958474 -652.397873 -708.070642 1669.529944
C 1.987033 1.146781 -4.822245 -398.123117 102.930139 -442.376774
C -1.344641 -3.102413 -6.946574 -111.143049 -86.064902 120.616451
C -1.884023 1.387786 -2.793784 41.167196 -1186.047914 -169.797944
C -0.003151 -0.128140 2.225945 -5.282151 76.019883 -100.581321
C 1.981184 -2.248617 3.520998 221.116488 -208.348511 -125.187700
C 0.632946 -2.624111 4.126093 -112.505134 -282.962895 52.896045
C 2.067324 -0.727136 3.583302 135.271542 197.482376 -122.949770
C -0.070957 -1.310541 4.460573 -253.715542 76.385786 3.384502
C 0.618670 -0.200249 3.643399 -94.836317 167.123677 45.197177
C -2.189784 0.104548 -3.597818 -57.446882 -80.140924 -27.985393
C -1.057000 -0.933763 -3.742260 -67.542914 410.502136 -292.148234
H 0.151414 4.644788 6.090402 -1.682078 48.494040 33.005981
H 2.272317 4.027106 4.949906 33.768682 29.441759 36.721110
H -1.769611 3.067996 6.058229 -24.805034 20.428038 52.534837
H 2.482606 1.856726 3.817031 51.436231 7.886826 27.844487
H -1.566231 0.887870 4.934207 -24.876419 -8.919565 58.338542
H -0.466905 -1.280058 -6.239598 102.624141 209.989824 -66.237319
H 0.529846 1.810289 1.819223 -109.431293 114.909638 152.812288
H 0.177284 0.905417 0.464467 232.452203 190.430475 748.256861
H 0.790823 -0.162418 -3.116770 509.308032 -32.753490 -80.931830
H 1.853835 1.875888 -4.023905 225.509329 -87.250044 345.926527
H 2.765400 0.438030 -4.547179 158.708265 -18.561601 380.337543
H 2.252990 1.659304 -5.744905 158.413145 118.943163 -167.485801
H -0.904551 -2.841741 -7.909150 85.999609 10.677238 -243.742486
H -2.429171 -3.172821 -7.048327 -212.840999 -50.920505 -93.851687
H -0.961907 -4.068912 -6.616261 88.818721 -242.343475 2.417102
H -2.816226 1.950251 -2.700737 280.200612 619.457568 125.999314
H -1.199407 2.006772 -3.378651 -184.971574 596.553671 294.718292
H 0.080131 -1.098519 1.725631 19.458955 -114.816097 31.482583
H -1.070672 0.103834 2.304299 -80.766140 0.394577 90.292267
H 2.809550 -2.712898 4.064949 87.042403 -52.817633 24.280538
H 2.023722 -2.581459 2.478557 27.724606 -37.334945 -68.144033
H 0.046413 -3.196505 3.400072 -50.303682 -64.895222 -34.354571
H 0.757804 -3.234760 5.025956 -3.235166 -77.796241 64.845669
H 2.607055 -0.444127 4.492894 39.724931 13.634819 91.710346
H 2.615302 -0.328756 2.723076 114.935810 49.185316 0.648555
H 0.045465 -1.110001 5.531113 16.485324 17.276347 96.437633
H -1.141826 -1.374954 4.241346 -95.036992 5.602479 69.645526
H -3.044504 -0.391499 -3.134772 -250.466233 -129.036672 12.045322
H -2.501501 0.413317 -4.596628 -151.921126 25.508420 -221.590617
H -0.978373 -1.434014 -2.777037 12.979674 -418.643764 118.822805
60
Lattice="100.000000 0.000000 0.000000 0.000000 100.000000 0.000000 0.000000 0.000000 100.000000" Properties=species:S:1:pos:R:3:REF_forces:R:3 E_kJmol=259.093068160892 pbc="T T T"
O -3.146274 4.857532 3.334172 -452.550564 -477.526861 -243.320168
O -4.473065 2.368699 -0.915558 -556.138282 74.745610 296.723041
C -4.210039 4.274133 3.502563 1142.651236 1384.902537 1133.752355
C -4.969047 2.880670 0.078971 1894.785020 -386.332140 -623.664945
C -1.598902 0.780975 -0.172254 -399.402245 56.609798 383.312572
C -1.953843 1.920825 0.495284 -298.030185 413.095157 358.596385
C -0.398905 2.463502 -0.979055 1074.999604 1363.635396 -715.470062
C 4.404542 0.711802 -1.691175 47.174631 182.521144 -30.829617
C 3.244882 0.221616 -1.086156 -89.812579 135.263745 74.824690
C 5.378512 -0.179028 -2.145709 102.884030 45.960672 -73.801343
C 3.056129 -1.158468 -0.950017 -197.089681 -118.333939 129.264217
C 5.188422 -1.557088 -2.005698 135.804568 -176.363071 -85.255801
C 4.017394 -2.074803 -1.420906 -21.615468 214.402829 -63.370695
N -0.626581 1.136468 -1.092018 -142.725817 -1110.315222 -237.429574
N -6.272451 3.187756 0.034387 -1633.651531 52.664113 -192.067304
N 4.068882 -3.314464 1.221439 -413.641207 -269.052703 41.548555
N -4.724082 3.446777 2.588674 -861.450109 -940.101247 -822.786262
N -1.190811 2.958918 -0.005435 -571.153770 -774.214848 457.496910
C -4.995452 4.459511 4.778774 443.817672 435.751039 -26.819420
C -7.111570 3.944254 0.966962 107.719201 130.522206 73.646101
C 4.558105 -4.045359 0.041190 24.945952 54.099750 247.283550
C 2.333560 -5.486112 -1.681359 -261.080670 -209.400547 4.797778
C 3.608295 -5.700607 -2.491823 65.051617 -264.013261 -182.373784
C 2.355593 -4.027112 -1.235918 -146.239386 152.791180 186.846856
C 4.365534 -4.375281 -2.458153 254.276052 66.089365 -33.781476
C 3.832397 -3.586605 -1.247280 97.671484 159.597771 -44.965544
C -3.018410 2.040049 1.559609 353.576767 185.889597 -327.708190
C -4.059736 3.156676 1.307486 184.354144 120.712587 413.717596
H -2.033894 -0.202424 -0.029365 295.186271 -224.709653 -375.155718
H 0.296616 3.041482 -1.582131 16.492539 19.149888 -33.482197
H 4.565415 1.780845 -1.795235 -5.849138 32.612725 14.259895
H 2.506086 0.914112 -0.699110 -4.090645 3.333304 23.325541
H 6.289958 0.195424 -2.603582 24.102756 20.602341 -12.171447
H 2.165857 -1.521696 -0.447485 -7.664794 -0.516464 25.637979
H 5.968455 -2.225842 -2.355805 26.879704 -13.624763 1.052191
H -0.194607 0.509768 -1.767080 -18.277328 50.555242 57.433143
H -6.710689 2.911738 -0.832861 136.338017 -65.229025 -130.311882
H 4.163271 -2.309485 1.071020 255.284922 -1.922421 49.992507
H 4.571895 -3.601475 2.061060 143.753323 186.691298 -39.759257
H -5.598086 2.991945 2.800921 -53.528274 25.649479 98.421329
H -1.238791 3.922937 0.308371 -12.142596 -9.658236 2.861365
H -4.498053 5.211421 5.391545 54.129023 88.825837 157.565015
H -5.031590 3.517383 5.323493 -331.799368 -212.451284 -48.393563
H -6.004671 4.794525 4.546162 -294.870324 -314.349898 -12.554388
H -7.375714 3.328900 1.828386 -7.008984 -111.792552 148.537570
H -6.603069 4.853723 1.295082 116.637706 117.440489 46.379552
H -8.036100 4.238577 0.465069 -130.773939 32.459009 -95.455157
H 5.634469 -3.871782 -0.069434 58.266754 29.061238 -28.409961
H 4.413939 -5.120214 0.194249 -6.819997 -79.510029 -9.716142
H 1.439599 -5.701447 -2.275137 -81.687492 -45.019353 -27.480552
H 2.333217 -6.146552 -0.808099 -14.476014 -62.462253 72.612083
H 3.381686 -5.991002 -3.522579 -5.295630 -55.560109 -84.420150
H 4.209620 -6.494059 -2.036192 52.158511 -78.059938 20.290019
H 1.894464 -3.910046 -0.249926 -91.575543 36.272468 43.607324
H 1.784030 -3.430925 -1.954961 -40.118797 39.279475 -62.536275
H 5.445866 -4.542779 -2.399866 93.992004 11.211523 -47.476746
H 4.157462 -3.823678 -3.381625 -23.559378 41.365764 -71.448220
H -2.504598 2.229003 2.504873 -2.578641 -20.937752 199.283368
H -3.538928 1.085596 1.655734 -106.003154 -118.289972 132.886500
H -3.516190 4.060789 1.033515 79.767992 175.982953 -113.540383
60
Lattice="100.000000 0.000000 0.000000 0.000000 100.000000 0.000000 0.000000 0.000000 100.000000" Properties=species:S:1:pos:R:3:REF_forces:R:3 E_kJmol=279.359658890304 pbc="T T T"
O -5.033431 -5.753978 -0.354320 -66.154250 686.392822 -20.250387
O -3.346112 -2.683685 2.684644 -617.811773 3.379321 -19.391285
C -5.636788 -4.753146 -0.713574 -166.056415 -2119.433333 -337.378085
C -4.323566 -2.943484 1.994213 2004.484515 51.465906 -297.463374
C -1.236774 -0.762502 0.560934 -519.527802 -66.753458 -222.318981
C -1.844854 -1.960647 0.300687 -384.153042 -438.338022 -196.756633
C 0.161692 -2.386231 1.135059 1248.328738 -1284.132745 492.320164
C 4.857290 -0.668981 -0.347510 49.852936 -163.273070 1.524225
C 3.529834 -0.241234 -0.417297 -112.527990 -135.097585 -31.050354
C 5.888754 0.271510 -0.366908 119.717549 -42.356866 25.607710
C 3.237114 1.126261 -0.485963 -246.035956 129.365220 -40.398333
C 5.593610 1.637390 -0.442156 152.483816 187.373884 23.111867
C 4.261520 2.094279 -0.485036 19.384122 -198.733037 66.358112
N 0.015615 -1.044584 1.081026 -30.493074 1142.546766 62.073653
N -5.516366 -2.974244 2.605227 -1318.565778 185.816391 960.792188
N 3.093701 3.189800 -2.914419 -440.678038 232.067064 157.065017
N -5.267950 -3.521788 -0.350154 2.903894 1498.536161 387.324049
N -0.956990 -2.964612 0.650805 -737.083016 737.718779 -206.623067
C -6.850229 -4.871003 -1.606738 321.053359 -542.634071 -20.289961
C -6.850494 -3.327401 2.115105 50.554049 -111.264914 -160.774759
C 3.983575 4.020213 -2.086338 -74.334748 -70.804578 -226.266290
C 2.696361 5.458519 0.423946 -242.157709 182.664996 88.842563
C 4.186633 5.764400 0.538924 128.738528 259.581353 133.192867
C 2.594668 3.981636 0.047385 -199.882795 -172.086335 -99.678456
C 4.914526 4.459857 0.221525 253.786020 -63.797638 -81.805232
C 3.940438 3.592238 -0.597709 115.367777 -153.908293 -2.045785
C -3.249191 -2.150394 -0.233448 441.460397 -203.274396 206.988300
C -4.088421 -3.231264 0.483867 -81.343839 -192.567947 -411.481100
H -1.674592 0.219598 0.416152 429.928204 253.560236 183.462844
H 1.020460 -2.913674 1.543918 10.641215 -22.449823 20.077276
H 5.095010 -1.728041 -0.300048 0.417099 -23.874357 -10.887267
H 2.731985 -0.974617 -0.448229 -14.712275 -2.983787 -4.702190
H 6.923876 -0.057342 -0.331492 31.496806 0.310446 4.303796
H 2.203370 1.442442 -0.574669 -19.987536 -8.100268 -22.870389
H 6.419003 2.341997 -0.469991 5.140486 32.256180 -11.406476
H 0.685577 -0.355849 1.415956 -30.669638 -64.426320 -32.924819
H -5.450928 -2.771931 3.592282 182.144318 20.611848 44.988143
H 3.146717 3.468032 -3.894583 169.048372 -174.844169 -20.171751
H 3.339572 2.204730 -2.807025 206.744823 27.639791 -152.576355
H -5.824463 -2.751826 -0.686928 -125.086996 -68.922131 -51.353368
H -1.155665 -3.958970 0.624730 -20.716297 12.387245 -11.758092
H -6.970109 -5.914141 -1.898953 -95.391123 -167.947429 -38.506455
H -7.738157 -4.544925 -1.068313 -111.760954 378.976056 -50.857846
H -6.711452 -4.265194 -2.500466 -185.070920 399.086899 27.175029
H -7.167742 -2.643032 1.327022 -12.010973 118.808564 -143.148309
H -7.568051 -3.257526 2.935866 -87.266993 21.740193 130.420970
H -6.859668 -4.356417 1.748418 32.685832 -142.614261 -70.426046
H 3.692531 5.071711 -2.185375 0.581486 73.063505 11.489218
H 5.009841 3.928948 -2.459348 70.640991 -31.361807 1.670867
H 2.248144 6.080953 -0.357976 -44.591800 49.206180 -50.975016
H 2.173609 5.660132 1.364607 -60.508357 34.903476 55.772646
H 4.463984 6.540557 -0.182203 32.592499 69.199071 -44.023053
H 4.445350 6.119165 1.541972 31.824783 62.088477 63.956626
H 2.438761 3.397563 0.960382 -9.119118 -48.382311 70.389975
H 1.746829 3.804536 -0.622125 -92.975937 -43.898759 -7.397473
H 5.160200 3.953625 1.161397 20.547952 -42.090561 77.820144
H 5.849497 4.652952 -0.314459 104.373897 -9.734763 2.061621
H -3.163670 -2.413741 -1.289928 -78.072882 14.278874 -181.377886
H -3.780224 -1.198760 -0.173328 -146.539732 114.051496 -78.212450
H -3.483763 -4.137878 0.490958 134.363309 -168.990024 58.757286
60
Lattice="100.000000 0.000000 0.000000 0.000000 100.000000 0.000000 0.000000 0.000000 100.000000" Properties=species:S:1:pos:R:3:REF_forces:R:3 E_kJmol=261.026617530138 pbc="T T T"
O 5.927135 5.527258 0.082710 -246.829805 -527.019178 -415.589240
O 4.350534 1.880798 1.764066 511.714377 97.433129 -277.534761
C 5.830121 4.997616 -1.013294 1068.125011 1675.467559 807.077141
C 4.992261 2.524274 0.938591 -2011.725142 -439.561203 772.414366
C 1.445098 0.751633 0.072944 394.918636 177.148480 -358.565137
C 2.011255 1.997776 0.065926 305.310780 534.368354 -167.179735
C 0.523459 1.938697 1.705153 -850.260855 911.042817 1367.789478
C -4.634010 0.514491 1.518849 -43.865587 155.406520 82.930519
C -3.465914 0.183800 0.828538 96.904580 151.333005 -16.020349
C -5.679387 -0.407680 1.592201 -107.107276 25.633016 76.517833
C -3.339489 -1.074605 0.228369 200.732064 -88.610599 -156.441290
C -5.551970 -1.662957 0.988976 -146.807691 -191.104205 6.879475
C -4.373128 -2.029627 0.311402 29.846469 171.452512 124.141057
N 0.515694 0.731349 1.100163 -44.370258 -1066.625984 -388.210242
N 6.328187 2.580988 0.969168 1579.124785 101.128084 -223.165910
N -4.337187 -2.264659 -2.583072 432.572544 -257.215171 -121.710764
N 5.083729 3.908027 -1.207655 -602.767856 -1226.315043 -492.789867
N 1.420792 2.730004 1.082600 539.486622 -571.322887 -701.295336
C 6.579220 5.547748 -2.203566 10.186127 432.392550 443.409826
C 7.171038 1.890046 1.945945 -149.050576 -69.001106 134.537742
C -4.902737 -3.350924 -1.766549 -15.897216 139.254225 -196.894759
C -2.869513 -5.439546 -0.504054 243.009438 -204.667322 -100.583988
C -4.218285 -5.825378 0.094771 -85.658820 -296.674906 83.766779
C -2.797529 -3.915075 -0.451642 159.752289 196.718640 -103.724795
C -4.903483 -4.516348 0.477139 -252.479786 73.384709 52.263680
C -4.249402 -3.402935 -0.363210 -85.821843 132.825310 95.736352
C 3.120275 2.470913 -0.851378 -293.937908 57.056710 432.476817
C 4.230780 3.300061 -0.166783 26.922412 253.274906 -266.343181
H 1.708555 -0.073346 -0.580789 -346.198363 -325.442534 219.465996
H -0.059373 2.212153 2.581633 -1.791451 0.814514 36.420828
H -4.745019 1.489953 1.983737 6.841016 32.159654 -3.671786
H -2.671145 0.915869 0.740023 12.319598 5.051907 -18.401680
H -6.597531 -0.150378 2.113161 -25.122998 11.580216 19.161435
H -2.438854 -1.303241 -0.331301 2.623742 -3.047444 -26.258752
H -6.386901 -2.353962 1.051883 -18.994965 -15.524361 -7.298087
H -0.032107 -0.076664 1.386151 22.895758 62.306829 -16.570806
H 6.776646 3.220226 0.331562 -135.202052 125.617832 -31.338021
H -4.415988 -1.378547 -2.082562 -258.431900 24.095715 -53.668522
H -4.807090 -2.209098 -3.486811 -134.878705 160.600716 99.551937
H 5.077887 3.511086 -2.134423 95.295761 84.386309 -96.457682
H 1.697181 3.661453 1.371512 -1.248966 -0.814851 -24.598122
H 7.092240 6.463217 -1.907453 130.043134 125.967799 12.029878
H 7.311321 4.819571 -2.547023 -101.659816 -241.760385 -306.719901
H 5.879256 5.775493 -3.005201 -45.035329 -309.092803 -303.469736
H 6.751270 2.004114 2.948073 -67.139244 31.736355 152.284291
H 8.178218 2.311019 1.937805 153.567780 76.426898 -26.893582
H 7.224574 0.826093 1.707129 -0.079061 -163.136524 -58.756473
H -4.762801 -4.305843 -2.284793 0.111587 -75.938067 -13.229462
H -5.981591 -3.193889 -1.656620 -60.949069 30.716661 36.646948
H -2.041677 -5.891217 0.051914 77.931577 -47.799293 17.613475
H -2.813614 -5.783548 -1.542191 22.199608 -37.561990 -80.794629
H -4.815410 -6.365521 -0.647426 -51.342711 -50.858428 -52.586915
H -4.096614 -6.470370 0.971077 -5.893896 -77.469605 54.231513
H -2.244111 -3.622271 0.446659 36.050871 17.666681 75.088114
H -2.270044 -3.516192 -1.324351 87.626554 47.404894 -23.982159
H -4.731030 -4.326123 1.542224 12.635411 16.805731 84.176189
H -5.984312 -4.577977 0.314138 -96.782319 2.140424 47.601562
H 3.577255 1.600150 -1.326707 93.023319 -62.084256 -150.158006
H 2.659412 3.074369 -1.635790 11.876912 54.969513 -199.537635
H 3.753848 4.127680 0.358451 -76.317238 152.878844 146.228351
62
Lattice="100.000000 0.000000 0.000000 0.000000 100.000000 0.000000 0.000000 0.000000 100.000000" Properties=species:S:1:pos:R:3:REF_forces:R:3 E_kJmol=82.595567292646 pbc="T T T"
O -1.127614 5.897152 3.280554 -319.431180 -503.840211 -54.939125
O -1.737453 1.878972 5.245548 25.194968 661.718042 34.489231
C -2.131490 5.518652 2.693495 978.666599 1829.788545 351.097224
C -1.651802 2.974900 4.697069 -212.233836 -2110.483293 -292.450040
C 0.298190 -7.165355 -3.874479 -59.726360 -157.712270 -74.690157
C -0.923520 2.235770 -1.844437 -2.237375 20.330107 187.090778
C 1.663682 -6.876960 -3.833256 84.054314 -100.553860 -45.486903
C -0.620479 -6.239846 -3.375138 -143.506714 -38.484844 -7.505558
C -1.189083 1.170321 -0.966308 71.595703 187.902245 66.130559
C -0.528699 3.485171 -1.334668 -18.849787 -131.840112 135.071936
C 2.107468 -5.663725 -3.297730 245.921662 77.756227 21.837464
C -0.174111 -5.024490 -2.845686 -153.563815 185.841587 87.034500
C -1.055478 1.354131 0.421570 39.391506 163.767638 -183.299072
C -0.394565 3.669265 0.053536 -60.253450 -231.337779 -105.163389
C 1.196825 -4.705053 -2.809552 -54.424731 -141.151112 -124.019052
C -0.656902 2.602963 0.934988 -177.453744 13.702558 -58.327525
N -1.421758 4.094435 5.391663 170.586267 1374.288810 660.772759
N 2.446562 -4.681062 -0.214429 455.620404 292.604386 -66.505464
N -2.516434 4.243686 2.616672 -852.973444 -1277.264163 -202.657644
C -3.013870 6.524892 1.993301 438.878173 279.689610 331.381443
C -1.226532 4.146929 6.838314 -11.654255 -212.960643 9.410319
C 1.686258 -3.502933 -0.658076 23.707860 -133.325782 171.424132
C 3.074425 -1.391514 -2.587749 266.355381 194.492929 -10.764751
C 1.619245 -0.937120 -2.529853 -103.094562 314.283183 -8.580716
C 3.042681 -2.910754 -2.734203 176.243687 -212.651264 59.458443
C 0.772967 -2.203706 -2.627786 -254.171857 -51.379817 48.198056
C 1.673067 -3.379447 -2.202586 -138.129379 -128.125988 -49.451587
C -0.517648 2.792538 2.433685 137.661974 -91.093701 -151.447992
C -1.843945 3.047704 3.168056 294.256187 281.103547 -285.848517
H -0.047374 -8.108266 -4.287735 -7.956079 -22.901142 -9.106141
H -1.022655 2.094306 -2.911849 -9.464089 -25.854856 -167.667764
H 2.384070 -7.595587 -4.212554 7.537837 -30.140410 -3.117951
H -1.682894 -6.463582 -3.395723 -22.233195 -12.422734 -9.202758
H -1.490474 0.209440 -1.359032 -50.301470 -158.787782 -57.971059
H -0.320595 4.303287 -2.010147 31.420469 129.387527 -108.007625
H 3.175999 -5.478630 -3.257802 21.472437 -4.995996 7.667070
H -0.909639 -4.327915 -2.457602 -4.909774 11.688784 24.848400
H -1.254459 0.531761 1.094301 -41.457252 -150.239198 102.682138
H -0.083929 4.628420 0.443929 52.326183 174.593505 48.870161
H -1.301018 4.949737 4.858412 17.993670 1.847116 -248.831167
H 2.141928 -5.510464 -0.727955 -187.377926 -39.402966 160.899775
H 2.357365 -4.822011 0.790872 -151.471090 -146.620345 -53.318786
H -3.350464 4.067543 2.081102 -59.809764 104.281798 -69.276779
H -3.012746 6.320913 0.923714 -331.374221 -215.851447 -147.912958
H -4.027186 6.458586 2.385968 -277.709673 -242.401205 -245.963417
H -2.618753 7.524319 2.173190 11.486548 201.870446 -40.694140
H -1.224025 5.182974 7.179452 -3.431685 183.556416 38.898637
H -2.029489 3.602698 7.339338 -145.036732 -67.584095 84.052080
H -0.274091 3.679732 7.094803 163.997184 -64.544262 41.333168
H 2.112929 -2.600256 -0.207674 11.023978 64.670486 27.656283
H 0.655557 -3.592911 -0.297609 -67.598029 -22.632775 -11.341404
H 3.604903 -0.928038 -3.425535 66.996092 45.761457 -49.009222
H 3.588091 -1.114880 -1.661259 48.909054 37.578115 69.745186
H 1.384667 -0.248602 -3.347739 -31.487635 84.386448 -42.192317
H 1.427179 -0.422707 -1.582519 -20.267918 54.451383 74.411633
H 3.873830 -3.377071 -2.195083 91.675826 -58.901845 -14.217884
H 3.139941 -3.161680 -3.795926 -5.037829 -7.200686 -81.194470
H 0.457989 -2.338485 -3.668526 -21.603698 -16.212653 -79.374015
H -0.126980 -2.123906 -2.009917 -98.564672 1.400841 6.552683
H -0.061400 1.892012 2.848119 137.220876 -78.440785 153.040477
H 0.169105 3.616238 2.631916 160.892756 82.480908 137.449957
H -2.485372 2.197506 2.934556 -132.290488 -167.884749 18.032833
