[Molden Format]
[Title]
 Molden file created by orca_2mkl for BaseName=h2o_hf

[Atoms] AU
O    1   8          0.0000000000         0.0000000000         0.0000000000 
H    2   1          0.0000000000         1.4308250396         1.1078708433 
H    3   1          0.0000000000        -1.4308250396         1.1078708433 
[GTO]
  1 0
s   5 1.0 
     2266.1767785000        -1.2615859742
      340.8701019100        -2.2748500410
       77.3631351670        -3.3479623295
       21.4796449400        -3.3299980531
        6.6589433124        -1.3203828288
s   1 1.0 
        0.8097597567         0.6083832301
s   1 1.0 
        0.2553077223         0.2559811911
p   3 1.0 
       17.7215043170         3.2460107647
        3.8635505440         2.5734959178
        1.0480920883         1.1208372892
p   1 1.0 
        0.2764154441         0.2856886381
d   1 1.0 
        1.2000000000         3.9222679946

  2 0
s   3 1.0 
       13.0107010000         0.1634903809
        1.9622572000         0.2773515510
        0.4445379600         0.3157501452
s   1 1.0 
        0.1219496200         0.1470772262
p   1 1.0 
        0.8000000000         1.0784563492

  3 0
s   3 1.0 
       13.0107010000         0.1634903809
        1.9622572000         0.2773515510
        0.4445379600         0.3157501452
s   1 1.0 
        0.1219496200         0.1470772262
p   1 1.0 
        0.8000000000         1.0784563492

[5D]
[7F]
[9G]
[MO]
 Sym=     1a
 Ene= -2.05458065246446E+01
 Spin= Alpha
 Occup= 2.000000
  1      -0.990331270520
  2       0.033335489201
  3      -0.010398150941
  4      -0.000000000000
  5       0.000000000000
  6       0.002783990768
  7       0.000000000000
  8       0.000000000000
  9      -0.000158685345
 10       0.000103884314
 11      -0.000000000000
 12       0.000000000000
 13      -0.000875703984
 14       0.000000000000
 15      -0.001802755284
 16       0.001773479994
 17       0.000000000000
 18       0.001946050458
 19       0.001528897844
 20      -0.001802755284
 21       0.001773479994
 22      -0.000000000000
 23      -0.001946050458
 24       0.001528897844
 Sym=     1a
 Ene= -1.31875442839570E+00
 Spin= Alpha
 Occup= 2.000000
  1      -0.278490949361
  2      -0.550316088771
  3      -0.288720641604
  4      -0.000000000000
  5      -0.000000000000
  6      -0.085031162984
  7       0.000000000000
  8       0.000000000000
  9       0.005026005800
 10      -0.001642635024
 11      -0.000000000000
 12       0.000000000000
 13       0.003913959803
 14      -0.000000000000
 15      -0.194124455613
 16      -0.006263235143
 17       0.000000000000
 18       0.032365298762
 19       0.017056312934
 20      -0.194124455613
 21      -0.006263235143
 22       0.000000000000
 23      -0.032365298762
 24       0.017056312934
 Sym=     1a
 Ene= -7.03432603760217E-01
 Spin= Alpha
 Occup= 2.000000
  1       0.000000000000
  2       0.000000000000
  3       0.000000000000
  4      -0.000000000000
  5       0.491231693791
  6      -0.000000000000
  7      -0.000000000000
  8       0.226274915287
  9       0.000000000000
 10       0.000000000000
 11      -0.000000000000
 12       0.026157488300
 13      -0.000000000000
 14      -0.000000000000
 15       0.326992504207
 16       0.084234871368
 17      -0.000000000000
 18      -0.021695104742
 19      -0.030464234552
 20      -0.326992504207
 21      -0.084234871368
 22       0.000000000000
 23      -0.021695104742
 24       0.030464234552
 Sym=     1a
 Ene= -5.68163358411977E-01
 Spin= Alpha
 Occup= 2.000000
  1      -0.096068712588
  2      -0.199943876880
  3      -0.331920224521
  4       0.000000000000
  5      -0.000000000000
  6       0.547332335421
  7       0.000000000000
  8       0.000000000000
  9       0.361013480485
 10       0.017929957307
 11       0.000000000000
 12       0.000000000000
 13      -0.003819140486
 14       0.000000000000
 15       0.203292780863
 16       0.052905516221
 17       0.000000000000
 18      -0.030489482617
 19       0.007162143773
 20       0.203292780863
 21       0.052905516221
 22       0.000000000000
 23       0.030489482617
 24       0.007162143773
 Sym=     1a
 Ene= -4.98072782732360E-01
 Spin= Alpha
 Occup= 2.000000
  1       0.000000000000
  2       0.000000000000
  3       0.000000000000
  4       0.632513134985
  5      -0.000000000000
  6      -0.000000000000
  7       0.497153040000
  8      -0.000000000000
  9      -0.000000000000
 10      -0.000000000000
 11       0.018408884888
 12       0.000000000000
 13       0.000000000000
 14      -0.000000000000
 15      -0.000000000000
 16      -0.000000000000
 17       0.029011337909
 18       0.000000000000
 19      -0.000000000000
 20      -0.000000000000
 21      -0.000000000000
 22       0.029011337909
 23      -0.000000000000
 24      -0.000000000000
 Sym=     1a
 Ene= 1.76177647271240E-01
 Spin= Alpha
 Occup= 0.000000
  1       0.087063139129
  2       0.088819572036
  3       1.102737830049
  4      -0.000000000000
  5       0.000000000000
  6       0.187102486659
  7      -0.000000000000
  8       0.000000000000
  9       0.367956795912
 10       0.008056687209
 11      -0.000000000000
 12       0.000000000000
 13      -0.009766318240
 14      -0.000000000000
 15      -0.066743487417
 16      -0.898346489124
 17      -0.000000000000
 18       0.015615650608
 19       0.011692573804
 20      -0.066743487417
 21      -0.898346489124
 22      -0.000000000000
 23      -0.015615650608
 24       0.011692573804
 Sym=     1a
 Ene= 2.55304424718835E-01
 Spin= Alpha
 Occup= 0.000000
  1      -0.000000000000
  2      -0.000000000000
  3      -0.000000000000
  4       0.000000000000
  5       0.282637687160
  6      -0.000000000000
  7       0.000000000000
  8       0.658403454032
  9      -0.000000000000
 10      -0.000000000000
 11       0.000000000000
 12       0.019010548720
 13      -0.000000000000
 14       0.000000000000
 15      -0.025554647692
 16      -1.431471448790
 17       0.000000000000
 18       0.015117315778
 19       0.012002116383
 20       0.025554647692
 21       1.431471448790
 22       0.000000000000
 23       0.015117315778
 24      -0.012002116383
 Sym=     1a
 Ene= 7.94565645418864E-01
 Spin= Alpha
 Occup= 0.000000
  1       0.000000000000
  2       0.000000000000
  3      -0.000000000000
  4      -0.000000000000
  5       0.270462730648
  6       0.000000000000
  7       0.000000000000
  8       0.521470387845
  9      -0.000000000000
 10      -0.000000000000
 11       0.000000000000
 12      -0.108195281483
 13       0.000000000000
 14      -0.000000000000
 15      -0.971458220056
 16       0.662038657153
 17      -0.000000000000
 18      -0.055499275354
 19      -0.125217527989
 20       0.971458220055
 21      -0.662038657153
 22       0.000000000000
 23      -0.055499275354
 24       0.125217527989
 Sym=     1a
 Ene= 8.68906656922178E-01
 Spin= Alpha
 Occup= 0.000000
  1       0.115630327178
  2       0.407134459225
  3      -0.396188156614
  4      -0.000000000000
  5      -0.000000000000
  6       0.329240311205
  7      -0.000000000000
  8      -0.000000000000
  9       0.053980489632
 10       0.000115200963
 11      -0.000000000000
 12       0.000000000000
 13       0.105343099667
 14      -0.000000000000
 15      -0.829619279794
 16       0.567241806802
 17      -0.000000000000
 18      -0.245237483934
 19      -0.052694737626
 20      -0.829619279794
 21       0.567241806803
 22       0.000000000000
 23       0.245237483934
 24      -0.052694737626
 Sym=     1a
 Ene= 1.18471390489768E+00
 Spin= Alpha
 Occup= 0.000000
  1      -0.129808496689
  2      -0.560679470978
  3      -0.001858197665
  4       0.000000000000
  5      -0.000000000000
  6       0.793947898612
  7      -0.000000000000
  8       0.000000000000
  9      -1.188640403803
 10      -0.005329768038
 11       0.000000000000
 12       0.000000000000
 13      -0.005618391655
 14       0.000000000000
 15       0.389948316223
 16       0.030333234868
 17      -0.000000000000
 18      -0.070830695349
 19      -0.142223960947
 20       0.389948316223
 21       0.030333234868
 22      -0.000000000000
 23       0.070830695349
 24      -0.142223960947
 Sym=     1a
 Ene= 1.20192345494621E+00
 Spin= Alpha
 Occup= 0.000000
  1      -0.000000000000
  2      -0.000000000000
  3       0.000000000000
  4      -0.967472944286
  5       0.000000000000
  6       0.000000000000
  7       1.033938049022
  8      -0.000000000000
  9      -0.000000000000
 10      -0.000000000000
 11      -0.004192850721
 12      -0.000000000000
 13      -0.000000000000
 14       0.000000000000
 15       0.000000000000
 16       0.000000000000
 17      -0.000579792559
 18      -0.000000000000
 19      -0.000000000000
 20       0.000000000000
 21      -0.000000000000
 22      -0.000579792559
 23       0.000000000000
 24      -0.000000000000
 Sym=     1a
 Ene= 1.26926212335750E+00
 Spin= Alpha
 Occup= 0.000000
  1       0.000000000000
  2       0.000000000000
  3      -0.000000000000
  4       0.000000000000
  5       0.766099081671
  6       0.000000000000
  7      -0.000000000000
  8      -1.730343816491
  9      -0.000000000000
 10      -0.000000000000
 11       0.000000000000
 12      -0.045925531435
 13      -0.000000000000
 14       0.000000000000
 15       0.344310226375
 16       0.799982469951
 17      -0.000000000000
 18      -0.261815742126
 19      -0.169306712352
 20      -0.344310226375
 21      -0.799982469951
 22      -0.000000000000
 23      -0.261815742126
 24       0.169306712352
 Sym=     1a
 Ene= 1.34024625538011E+00
 Spin= Alpha
 Occup= 0.000000
  1      -0.246329243238
  2      -1.541544430563
  3       2.792752353347
  4       0.000000000000
  5       0.000000000000
  6      -0.080206094015
  7      -0.000000000000
  8      -0.000000000000
  9       0.610310781846
 10       0.040173808164
 11      -0.000000000000
 12      -0.000000000000
 13       0.040957495449
 14      -0.000000000000
 15      -0.532087896404
 16      -0.502249900945
 17      -0.000000000000
 18      -0.007571026077
 19       0.322900165884
 20      -0.532087896404
 21      -0.502249900945
 22       0.000000000000
 23       0.007571026076
 24       0.322900165884
 Sym=     1a
 Ene= 1.59743193029500E+00
 Spin= Alpha
 Occup= 0.000000
  1      -0.000000000000
  2      -0.000000000000
  3       0.000000000000
  4       0.000000000000
  5       0.000000000000
  6      -0.000000000000
  7       0.000000000000
  8      -0.000000000000
  9       0.000000000000
 10      -0.000000000000
 11      -0.000000000000
 12      -0.000000000000
 13       0.000000000000
 14       0.164331181843
 15      -0.000000000000
 16      -0.000000000000
 17       0.670055326747
 18       0.000000000000
 19      -0.000000000000
 20      -0.000000000000
 21      -0.000000000000
 22      -0.670055326747
 23      -0.000000000000
 24      -0.000000000000
 Sym=     1a
 Ene= 1.66380062695435E+00
 Spin= Alpha
 Occup= 0.000000
  1      -0.084750438085
  2      -0.699639323666
  3       1.673585059758
  4      -0.000000000000
  5      -0.000000000000
  6      -0.069293080238
  7       0.000000000000
  8       0.000000000000
  9       1.161081448560
 10      -0.184342995045
 11      -0.000000000000
 12      -0.000000000000
 13       0.026433649470
 14      -0.000000000000
 15      -0.740764219591
 16      -0.175263835378
 17      -0.000000000000
 18       0.439142224003
 19      -0.450896318432
 20      -0.740764219591
 21      -0.175263835378
 22       0.000000000000
 23      -0.439142224003
 24      -0.450896318432
 Sym=     1a
 Ene= 1.80862342427215E+00
 Spin= Alpha
 Occup= 0.000000
  1       0.000000000000
  2       0.000000000000
  3       0.000000000000
  4      -0.031730034305
  5       0.000000000000
  6       0.000000000000
  7      -0.558516822984
  8       0.000000000000
  9       0.000000000000
 10      -0.000000000000
 11       0.198637069787
 12       0.000000000000
 13      -0.000000000000
 14       0.000000000000
 15      -0.000000000000
 16       0.000000000000
 17       0.739915465303
 18       0.000000000000
 19      -0.000000000000
 20      -0.000000000000
 21      -0.000000000000
 22       0.739915465303
 23      -0.000000000000
 24      -0.000000000000
 Sym=     1a
 Ene= 2.06014023593684E+00
 Spin= Alpha
 Occup= 0.000000
  1       0.000000000000
  2       0.000000000000
  3       0.000000000000
  4       0.000000000000
  5       0.015853343076
  6      -0.000000000000
  7      -0.000000000000
  8      -0.813607790616
  9       0.000000000000
 10       0.000000000000
 11       0.000000000000
 12       0.023950678211
 13       0.000000000000
 14       0.000000000000
 15       0.350612984671
 16       0.080141570940
 17       0.000000000000
 18       0.470483432391
 19      -0.664701477158
 20      -0.350612984671
 21      -0.080141570940
 22       0.000000000000
 23       0.470483432391
 24       0.664701477158
 Sym=     1a
 Ene= 2.56310782278043E+00
 Spin= Alpha
 Occup= 0.000000
  1       0.000000000000
  2       0.000000000000
  3       0.000000000000
  4       0.000000000000
  5       0.795804473517
  6       0.000000000000
  7       0.000000000000
  8       0.103023350768
  9       0.000000000000
 10       0.000000000000
 11       0.000000000000
 12      -0.169583024547
 13       0.000000000000
 14      -0.000000000000
 15      -0.233113948797
 16      -0.289639341420
 17       0.000000000000
 18       0.672509224239
 19       0.535677492920
 20       0.233113948797
 21       0.289639341420
 22      -0.000000000000
 23       0.672509224239
 24      -0.535677492920
 Sym=     1a
 Ene= 2.60267036118132E+00
 Spin= Alpha
 Occup= 0.000000
  1      -0.157119330253
  2      -0.801012560853
  3      -0.621997225000
  4      -0.000000000000
  5       0.000000000000
  6      -0.622652525381
  7       0.000000000000
  8       0.000000000000
  9      -0.182098531703
 10       0.092311547214
 11       0.000000000000
 12      -0.000000000000
 13      -0.282154075733
 14      -0.000000000000
 15       0.419337007907
 16       0.177071138936
 17      -0.000000000000
 18      -0.712070635833
 19      -0.498064277919
 20       0.419337007907
 21       0.177071138936
 22      -0.000000000000
 23       0.712070635833
 24      -0.498064277919
 Sym=     1a
 Ene= 3.32708834411655E+00
 Spin= Alpha
 Occup= 0.000000
  1       0.000000000000
  2       0.000000000000
  3      -0.000000000000
  4      -0.008734547612
  5      -0.000000000000
  6       0.000000000000
  7       0.296010647931
  8       0.000000000000
  9      -0.000000000000
 10      -0.000000000000
 11       1.032079580456
 12       0.000000000000
 13       0.000000000000
 14       0.000000000000
 15      -0.000000000000
 16      -0.000000000000
 17      -0.408434768711
 18      -0.000000000000
 19       0.000000000000
 20      -0.000000000000
 21       0.000000000000
 22      -0.408434768711
 23      -0.000000000000
 24       0.000000000000
 Sym=     1a
 Ene= 3.38517544528749E+00
 Spin= Alpha
 Occup= 0.000000
  1      -0.000000000000
  2       0.000000000000
  3      -0.000000000000
  4       0.000000000000
  5       0.000000000000
  6      -0.000000000000
  7      -0.000000000000
  8       0.000000000000
  9      -0.000000000000
 10      -0.000000000000
 11      -0.000000000000
 12      -0.000000000000
 13      -0.000000000000
 14       1.057741084688
 15       0.000000000000
 16       0.000000000000
 17      -0.382673643776
 18      -0.000000000000
 19       0.000000000000
 20       0.000000000000
 21       0.000000000000
 22       0.382673643776
 23       0.000000000000
 24       0.000000000000
 Sym=     1a
 Ene= 3.57139837394566E+00
 Spin= Alpha
 Occup= 0.000000
  1       0.002901957408
  2      -0.075002525479
  3       0.548771462857
  4      -0.000000000000
  5      -0.000000000000
  6       0.031379766059
  7       0.000000000000
  8      -0.000000000000
  9       0.547237114710
 10       1.075657666027
 11       0.000000000000
 12      -0.000000000000
 13       0.156858146018
 14       0.000000000000
 15      -0.320182252849
 16      -0.059920044642
 17      -0.000000000000
 18       0.380926877460
 19      -0.313999584825
 20      -0.320182252849
 21      -0.059920044642
 22       0.000000000000
 23      -0.380926877460
 24      -0.313999584825
 Sym=     1a
 Ene= 3.90267416534350E+00
 Spin= Alpha
 Occup= 0.000000
  1       0.081760604438
  2       0.192788975906
  3       1.880937828820
  4      -0.000000000000
  5      -0.000000000000
  6       0.404011229877
  7       0.000000000000
  8      -0.000000000000
  9       0.880179129700
 10       0.113792915347
 11       0.000000000000
 12      -0.000000000000
 13      -1.150228200987
 14       0.000000000000
 15      -1.161335878569
 16      -0.222194794331
 17      -0.000000000000
 18       0.611788637023
 19       0.500142308234
 20      -1.161335878569
 21      -0.222194794331
 22      -0.000000000000
 23      -0.611788637023
 24       0.500142308234
 Sym=     1a
 Ene= 4.23364528618768E+00
 Spin= Alpha
 Occup= 0.000000
  1      -0.000000000000
  2      -0.000000000000
  3      -0.000000000000
  4       0.000000000000
  5      -0.498920556589
  6      -0.000000000000
  7      -0.000000000000
  8      -1.097574435529
  9      -0.000000000000
 10      -0.000000000000
 11       0.000000000000
 12      -1.337714106583
 13       0.000000000000
 14      -0.000000000000
 15       1.069141385902
 16       0.253022735018
 17       0.000000000000
 18      -0.619253739383
 19      -0.503132489781
 20      -1.069141385902
 21      -0.253022735018
 22      -0.000000000000
 23      -0.619253739383
 24       0.503132489781
