[Molden Format]
made by pyscf v[2.11.0]
[Atoms] (AU)
O   1   8     0.00000000000000     0.00000000000000     0.00000000000000
H   2   1     0.00000000000000    -1.43082503247568     1.10787083778751
H   3   1     0.00000000000000     1.43082503247568     1.10787083778751
[GTO]
1 0
 s    5 1.00
          2266.1767785  -0.0053893503921743
          340.87010191   -0.04023472138896
          77.363135167   -0.18008184205526
           21.47964494   -0.46828857657651
          6.6589433124   -0.44692617160187
 s    1 1.00
         0.80975975668                   1
 s    1 1.00
         0.25530772234                   1
 p    3 1.00
          17.721504317   0.062630248763161
           3.863550544    0.33331138482352
          1.0480920883    0.74148638308122
 p    1 1.00
         0.27641544411                   1
 d    1 1.00
                   1.2                   1

2 0
 s    3 1.00
             13.010701   0.033485484812989
             1.9622572    0.23472187088125
            0.44453796    0.81377028525955
 s    1 1.00
            0.12194962                   1
 p    1 1.00
                   0.8                   1

3 0
 s    3 1.00
             13.010701   0.033485484812989
             1.9622572    0.23472187088125
            0.44453796    0.81377028525955
 s    1 1.00
            0.12194962                   1
 p    1 1.00
                   0.8                   1

[5d]
[7f]
[9g]

[MO]
 Sym= A
 Ene=     -20.5458049
 Spin= Alpha
 Occup=    2.00000
   1      0.99033127478215
   2    -0.033335465648244
   3     0.010398128146926
   4    -1.8889234297629e-18
   5    3.5957936353279e-17
   6    -0.0027839913683858
   7    7.1417286188506e-19
   8    -8.4299709836605e-18
   9    0.0001586883582813
  10    -0.00010387062671601
  11    1.1321898026706e-19
  12    2.8568727244993e-17
  13    0.00087571068345263
  14    7.8086066439465e-19
  15    0.0018027522003159
  16    -0.0017734770008184
  17    1.1563881814807e-19
  18    0.0019460475416037
  19    -0.0015288974933484
  20    0.0018027522003158
  21    -0.0017734770008183
  22    -9.7568892434993e-20
  23    -0.0019460475416036
  24    -0.0015288974933484
 Sym= A
 Ene=    -1.318753833
 Spin= Alpha
 Occup=    2.00000
   1      0.27849099913578
   2      0.55031624947276
   3      0.28872069777311
   4    3.1236786546834e-17
   5    -1.9265386423421e-16
   6     0.085030814252497
   7    -1.5292573474492e-17
   8    8.9785171757261e-16
   9    -0.0050258535306694
  10    0.0016425756166962
  11    -1.1483313183917e-19
  12    3.4000580129145e-16
  13    -0.0039140280112335
  14    -5.5036932705176e-19
  15      0.19412439008493
  16     0.006263171299578
  17    -4.8702421791519e-18
  18     0.032365335910646
  19     -0.01705622363758
  20      0.19412439008492
  21    0.0062631712995796
  22    6.3436483904734e-18
  23    -0.032365335910646
  24     -0.01705622363758
 Sym= A
 Ene=   -0.7034328024
 Spin= Alpha
 Occup=    2.00000
   1    3.7237371621111e-16
   2    -3.9327127006307e-16
   3    5.1856597234945e-15
   4    3.0616422607472e-16
   5      0.49123414201568
   6    -1.8908042307326e-15
   7    2.635079755327e-16
   8      0.22627595860995
   9    4.4933444469225e-16
  10    -1.118896642005e-16
  11    8.8537343898083e-17
  12     0.026157469503644
  13    4.1633363423443e-17
  14    -3.8849270409905e-17
  15     -0.32699134437984
  16    -0.084231865268456
  17    -5.3522897310535e-17
  18    -0.021695148538542
  19      0.03046427997888
  20      0.32699134437983
  21     0.084231865268455
  22    4.8192984976593e-17
  23    -0.021695148538541
  24     -0.03046427997888
 Sym= A
 Ene=   -0.5681618835
 Spin= Alpha
 Occup=    2.00000
   1    -0.096069038697879
   2     -0.19994487555503
   3     -0.33192111075352
   4    -1.5410981459927e-15
   5    1.1038989662511e-15
   6      0.54732988835712
   7    -1.2737877184287e-15
   8    1.7562247810641e-15
   9      0.36101443499932
  10     0.017930065066995
  11    -3.2664718040435e-17
  12    3.3306690738755e-16
  13    -0.0038192307535755
  14    2.4061079937726e-17
  15      0.20329364665072
  16     0.052906588135936
  17    -7.6367319708544e-17
  18     0.030489397615732
  19    0.0071624389279326
  20      0.20329364665072
  21     0.052906588135937
  22    -5.8214934826818e-17
  23    -0.030489397615732
  24    0.0071624389279333
 Sym= A
 Ene=   -0.4980721398
 Spin= Alpha
 Occup=    2.00000
   1    -3.3364905324613e-16
   2    -9.1317426033384e-16
   3    -7.9286118742154e-16
   4      0.63251344218224
   5    -5.8001104893843e-16
   6    1.3750347032014e-15
   7      0.49715269752991
   8    -4.4215197223829e-16
   9    5.3619636488984e-16
  10    1.0253495092996e-16
  11     0.018408930549707
  12    -5.290540859022e-17
  13    5.712623961525e-17
  14    -2.8966809303386e-16
  15    8.4712175842046e-16
  16    -4.7072729241947e-16
  17     0.029011353734844
  18    -1.4646510613346e-17
  19    -7.395519874503e-17
  20    5.5734185684291e-16
  21    9.8257347621531e-16
  22     0.029011353734844
  23    -1.4936527292919e-16
  24    -1.2131939543147e-16
 Sym= A
 Ene=    0.1761779193
 Spin= Alpha
 Occup=    0.00000
   1     0.087062833824763
   2     0.088818797987282
   3       1.1027373901026
   4     1.09465991315e-16
   5    -1.0241824710651e-14
   6      0.18710340852313
   7    9.5413071188137e-17
   8    -3.8325998367265e-14
   9      0.36795799484136
  10    0.0080567098484243
  11    1.2902255063939e-17
  12    -2.0452389781767e-15
  13    -0.0097663749980985
  14    8.7579985115317e-17
  15    -0.066742715154994
  16     -0.89834666027942
  17    -4.3374099396597e-17
  18     -0.01561567065325
  19     0.011692581638644
  20    -0.066742715154977
  21      -0.8983466602793
  22    3.7389724368826e-17
  23     0.015615670653247
  24     0.011692581638638
 Sym= A
 Ene=    0.2553042321
 Spin= Alpha
 Occup=    0.00000
   1    -2.7802520819427e-15
   2    1.4978916186921e-15
   3    -5.4948970382413e-14
   4    -2.9317915270611e-16
   5     -0.28263622557335
   6    -8.7471301672109e-15
   7    -9.4502750282886e-17
   8     -0.65840260241768
   9    -1.8956296885454e-14
  10    -1.0647407434894e-15
  11    -2.1182480133781e-16
  12    -0.019010459455183
  13     5.98479599212e-16
  14    -3.4782313250479e-16
  15    -0.025555798183959
  16      -1.4314715560041
  17    3.1249088895602e-17
  18    -0.015117348215082
  19     0.012002191384734
  20     0.025555798183971
  21       1.4314715560042
  22    1.0590044396841e-16
  23    -0.015117348215087
  24    -0.012002191384734
 Sym= A
 Ene=     0.794565742
 Spin= Alpha
 Occup=    0.00000
   1    3.2156030871685e-15
   2    2.5949800429646e-14
   3    -5.7693240313677e-14
   4    -3.4629436447256e-17
   5      0.27046234207897
   6    -2.4641381381012e-15
   7    -1.0895048023441e-16
   8      0.52146930169936
   9    -2.1632243980184e-14
  10    -4.6317116808581e-16
  11    -5.3188776037971e-17
  12     -0.10819527495107
  13    -1.2490009027033e-16
  14    4.089401168047e-17
  15      0.97145850211275
  16     -0.66203908570067
  17    2.9159549664938e-16
  18    -0.055499405364412
  19      0.12521759818662
  20     -0.97145850211269
  21      0.66203908570067
  22    -2.4015716287713e-16
  23    -0.055499405364416
  24     -0.12521759818662
 Sym= A
 Ene=    0.8689071478
 Spin= Alpha
 Occup=    0.00000
   1      -0.1156303142766
   2     -0.40713452737317
   3      0.39618812707729
   4    -4.4307845790433e-16
   5    -5.6439715593723e-15
   6     -0.32924026448079
   7    3.9870111495834e-16
   8    -2.3869732844013e-15
   9    -0.053982460569229
  10    -0.00011520898765236
  11    -9.0824831064578e-18
  12    1.5543122344752e-15
  13     -0.10534306490386
  14    4.3380688794658e-16
  15      0.82961933546891
  16     -0.56724144907464
  17    -4.1976811212155e-16
  18     -0.24523759621887
  19     0.052694737554555
  20      0.82961933546893
  21     -0.56724144907466
  22    3.2661404072621e-16
  23      0.24523759621887
  24     0.052694737554559
 Sym= A
 Ene=     1.184714878
 Spin= Alpha
 Occup=    0.00000
   1      0.12980842906205
   2      0.56067914898868
   3    0.0018594467237635
   4    -1.1322880071342e-14
   5    1.5130022576384e-14
   6     -0.79394901088907
   7    1.2455061612266e-14
   8    -3.6658729082534e-14
   9       1.1886399216055
  10    0.0053297160190676
  11    -3.2529805395475e-17
  12    -1.4710455076283e-15
  13    0.0056182589971692
  14    5.5055082858718e-16
  15     -0.38994807531378
  16    -0.030333810939266
  17    -5.4066660557717e-16
  18     -0.07083117873912
  19      0.14222416002916
  20     -0.38994807531376
  21    -0.030333810939233
  22    4.0484603460733e-16
  23     0.070831178739107
  24      0.14222416002915
 Sym= A
 Ene=     1.201923992
 Spin= Alpha
 Occup=    0.00000
   1    -1.677370478303e-15
   2    -7.4794202627725e-15
   3    1.2500856214668e-15
   4     -0.96747274338149
   5    -3.1065615126481e-16
   6    9.3944977167446e-15
   7       1.0339381871173
   8    1.1856295005842e-15
   9    -1.4218475222693e-14
  10    3.0791216151727e-17
  11    -0.0041928442134546
  12    -3.4671812953371e-17
  13    -7.5226673265143e-17
  14    -7.7828372894263e-18
  15    4.703185616032e-15
  16    8.0724606509777e-16
  17    -0.00057975578977481
  18    1.502235640849e-15
  19    -1.3711852265944e-15
  20    3.8462381428146e-15
  21    -1.904000621534e-16
  22    -0.00057975578977497
  23    -7.1373125960973e-16
  24    -1.1750409458306e-15
 Sym= A
 Ene=     1.269262279
 Spin= Alpha
 Occup=    0.00000
   1    1.5083732666168e-14
   2    8.7997200985488e-14
   3    -1.4041223383311e-13
   4    5.3009539499329e-16
   5     -0.76609830997793
   6    -1.2703396336802e-14
   7    -6.1484430587738e-16
   8       1.7303443937811
   9    -1.0751931355136e-14
  10    -8.6909646146438e-16
  11    6.2854346163633e-17
  12     0.045925557033909
  13    -2.5673907444457e-16
  14    2.2776827920099e-16
  15      0.34431032067607
  16      0.79998228572515
  17    -6.9272687023495e-16
  18      0.26181577278716
  19     -0.16930664775108
  20     -0.34431032067603
  21     -0.79998228572511
  22    9.426099654162e-16
  23      0.26181577278715
  24      0.16930664775106
 Sym= A
 Ene=     1.340246531
 Spin= Alpha
 Occup=    0.00000
   1     -0.24632916246247
   2      -1.5415440672044
   3       2.7927518555996
   4    9.2911156105377e-16
   5    -3.4265137917706e-14
   6    -0.080206291818482
   7    -9.4812907478961e-16
   8    7.5102331789262e-14
   9      0.61030991486631
  10     0.040173868931204
  11    4.2446673388667e-18
  12    -3.0808688933348e-15
  13     0.040957421104675
  14    -4.9920822720018e-16
  15     -0.53208769681317
  16     -0.50224982594072
  17    8.8659326715537e-16
  18    0.0075711821402312
  19      0.32290037776954
  20     -0.53208769681322
  21     -0.50224982594076
  22    -7.788488463185e-16
  23    -0.0075711821402027
  24      0.32290037776953
 Sym= A
 Ene=     1.597432189
 Spin= Alpha
 Occup=    0.00000
   1    -1.6923662580708e-15
   2    -1.3171041896093e-14
   3    2.9394333713502e-14
   4    -7.8699412860036e-17
   5    8.5149136482809e-16
   6    -2.1353527556058e-16
   7    -1.3514374341159e-15
   8    -2.1595418863897e-15
   9    1.7656943095048e-14
  10    -3.1621642333662e-15
  11    4.3991266986274e-16
  12    -1.2582629155905e-16
  13    5.1386012064883e-16
  14      0.16433103685176
  15    -1.2579490007479e-14
  16    -4.5212134922602e-15
  17     -0.67005537918219
  18    -7.2400042469532e-15
  19    -6.3285332778544e-15
  20    -1.2376969446579e-14
  21    -1.2024824898199e-15
  22      0.67005537918219
  23    5.7368332136082e-15
  24    -6.8541272765078e-15
 Sym= A
 Ene=      1.66380089
 Spin= Alpha
 Occup=    0.00000
   1    -0.084750549202642
   2     -0.69964004633922
   3       1.6735863875657
   4    -3.7935890982415e-16
   5    -4.0456356595587e-15
   6    -0.069293016100125
   7    7.6836682237267e-16
   8    3.0083287229361e-15
   9       1.1610818020185
  10     -0.18434282775901
  11    -1.218326832743e-16
  12    -3.1918911957973e-15
  13     0.026433660774917
  14    -1.5133215351279e-15
  15      -0.7407644078447
  16     -0.17526405706291
  17    1.0208156129573e-14
  18     -0.43914232604884
  19     -0.45089618864672
  20     -0.74076440784471
  21      -0.1752640570629
  22    -1.1408153286778e-14
  23      0.43914232604885
  24     -0.45089618864673
 Sym= A
 Ene=     1.808623615
 Spin= Alpha
 Occup=    0.00000
   1    -5.0554910678514e-17
   2    -4.5159852687842e-16
   3    1.1582525128538e-15
   4    -0.031730028954271
   5    3.2876885059651e-16
   6    -1.468228033371e-16
   7     -0.55851692748753
   8    -1.2678962798552e-15
   9    9.6653528743733e-16
  10    -1.1347501236011e-16
  11      0.19863690563663
  12    -6.8107255249643e-18
  13    1.6089461957186e-17
  14    -8.8627706255532e-16
  15    -7.6515753685502e-16
  16    -5.0893976461567e-16
  17      0.73991552941638
  18    3.9165830380615e-16
  19    4.1279068650015e-16
  20    -2.930416307092e-16
  21    2.2649735546371e-16
  22      0.73991552941638
  23    1.1014189832869e-15
  24    -1.1833727409183e-15
 Sym= A
 Ene=     2.060140404
 Spin= Alpha
 Occup=    0.00000
   1    -4.4817748250565e-15
   2    -2.8869334054884e-14
   3    4.3607945310408e-14
   4    -3.4604970945198e-16
   5    -0.015853507003557
   6    -5.2344116241933e-15
   7    -6.9088917925145e-16
   8      0.81360784090865
   9    1.5084799214669e-14
  10    -1.6124254709204e-15
  11    -2.7079829446105e-16
  12    -0.023950638948118
  13    3.1780134079895e-15
  14    -3.9891342893237e-16
  15      0.35061299227918
  16     0.080141551368909
  17    1.3241869950198e-15
  18     -0.47048351642704
  19     -0.66470141220674
  20      -0.3506129922792
  21    -0.080141551368925
  22    1.1540274831063e-15
  23     -0.47048351642704
  24      0.66470141220674
 Sym= A
 Ene=     2.563108147
 Spin= Alpha
 Occup=    0.00000
   1    -4.9231983233456e-15
   2    -2.5086102920147e-14
   3    -1.6915646787045e-14
   4    3.7105306835828e-16
   5      0.79580445370055
   6    -1.9916197422726e-14
   7    -1.4603152787952e-16
   8      0.10302349895755
   9    -5.0068695265708e-15
  10    2.2039661762285e-15
  11    -4.436112899829e-16
  12     -0.16958286883125
  13    -6.435824095874e-15
  14    1.0876036121037e-15
  15      0.23311433124871
  16      0.28963931018451
  17    6.517824289594e-17
  18      0.67250922949254
  19     -0.53567764999889
  20     -0.23311433124869
  21      -0.2896393101845
  22    -1.9994107609782e-16
  23       0.6725092294925
  24      0.53567764999886
 Sym= A
 Ene=     2.602670805
 Spin= Alpha
 Occup=    0.00000
   1      0.15711933118387
   2      0.80101258655424
   3      0.62199734185336
   4    7.0337405107199e-17
   5    2.1622174981947e-14
   6      0.62265301213317
   7    -6.3883152679366e-17
   8    6.4531827512524e-15
   9      0.18209859125103
  10    -0.092311462339745
  11    1.8707847345791e-17
  12    -7.0360384185619e-15
  13      0.28215394864873
  14    1.6124529321651e-16
  15      -0.4193372020367
  16     -0.17707108695103
  17    1.1940850534515e-16
  18     -0.71207064715787
  19      0.49806431222042
  20     -0.41933720203671
  21     -0.17707108695105
  22    -9.1896688827739e-17
  23       0.7120706471579
  24      0.49806431222045
 Sym= A
 Ene=     3.327089016
 Spin= Alpha
 Occup=    0.00000
   1    -2.3424376989992e-18
   2    1.1688670200091e-17
   3    -1.7852093136793e-16
   4    -0.0087345788154901
   5    -1.2364397403582e-16
   6    -3.2183750297149e-17
   7       0.2960105519791
   8    -5.8311442872245e-17
   9    -1.2604341878071e-16
  10    -1.2844435048146e-16
  11       1.0320796126228
  12    -5.7009828103588e-17
  13    7.4017003514514e-18
  14    -1.3032589482554e-14
  15    3.6149161957039e-16
  16    -5.5908480840997e-16
  17     -0.40843465634011
  18    -1.7662924615306e-16
  19    -4.7799198749267e-16
  20    -1.8880999527186e-16
  21    6.2156585741289e-16
  22      -0.4084346563401
  23    -3.6077160123576e-16
  24    5.4190275772556e-16
 Sym= A
 Ene=     3.385176188
 Spin= Alpha
 Occup=    0.00000
   1    -5.9424880978767e-19
   2    7.0288404492246e-16
   3    -4.6307183446512e-15
   4    1.0164336217612e-17
   5    -4.2691173194143e-16
   6    5.4983151455375e-17
   7    3.5846355318447e-15
   8    9.2123198569532e-16
   9    -4.5321293489395e-15
  10    -5.8449787693287e-15
  11    1.3058435008809e-14
  12    1.1526465495649e-15
  13    -9.296321241401e-16
  14       1.0577411089907
  15    2.8337546157795e-15
  16    8.806023975209e-16
  17      0.38267355550657
  18    2.5450053072747e-15
  19    2.171773704294e-15
  20    1.6507679640542e-15
  21    7.2117042385965e-16
  22     -0.38267355550658
  23    -3.3207018845506e-15
  24    2.2975055445674e-15
 Sym= A
 Ene=     3.571399002
 Spin= Alpha
 Occup=    0.00000
   1    0.0029019859936065
   2    -0.075002400221122
   3      0.54877152713722
   4    -5.1821281246941e-17
   5    -1.254519541012e-15
   6     0.031379778816798
   7    2.1224637475128e-17
   8    -3.1897014045515e-15
   9      0.54723707726668
  10       1.0756577134617
  11    1.2095347327913e-16
  12    -4.3159920082303e-15
  13      0.15685798477186
  14    6.099841679228e-15
  15     -0.32018231080221
  16     -0.05992004726696
  17    1.9171340984863e-15
  18     -0.38092685333481
  19     -0.31399948538062
  20      -0.3201823108022
  21    -0.059920047266954
  22    -2.0636786265666e-15
  23      0.38092685333481
  24     -0.31399948538062
 Sym= A
 Ene=     3.902674891
 Spin= Alpha
 Occup=    0.00000
   1     0.081760579158485
   2      0.19278892812826
   3        1.880937467466
   4    2.971733344719e-17
   5    -1.0516452074836e-14
   6      0.40401127752291
   7    -8.5843707634615e-18
   8    -1.7636817936717e-14
   9      0.88017892947261
  10       0.1137927937747
  11    2.2953959090401e-17
  12    -2.9615199181876e-14
  13      -1.1502282615547
  14    -6.2191282774168e-17
  15      -1.1613357333696
  16     -0.22219472654509
  17    -2.535684824098e-17
  18     -0.61178846963615
  19      0.50014226707035
  20      -1.1613357333696
  21     -0.22219472654508
  22    1.6271455924489e-17
  23      0.61178846963612
  24      0.50014226707033
 Sym= A
 Ene=     4.233645946
 Spin= Alpha
 Occup=    0.00000
   1    1.1415922519175e-15
   2    -1.1494083084014e-15
   3    5.8326616303682e-14
   4    5.4783354242121e-17
   5      0.49892041363385
   6    9.2630224158113e-15
   7    1.9873759283458e-17
   8       1.0975743047361
   9    2.6574922871799e-14
  10    5.388051116384e-15
  11    4.0053794446024e-17
  12       1.3377141315675
  13    -2.3980817331903e-14
  14    -9.353935314266e-16
  15       1.0691413608087
  16      0.25302268623411
  17    -2.9140891279882e-16
  18      0.61925365236263
  19     -0.50313241394218
  20      -1.0691413608088
  21     -0.25302268623412
  22    2.4254248797834e-16
  23      0.61925365236266
  24      0.50313241394221
